B120
 1.000000
   -17.0000000000000426    0.0000000000000853   -0.0000000000000000
     1.7000000000000171   17.6669182367039639   -0.0000000000000000
    -0.0000000000000000   -0.0000000000000000  -10.8800000000000008
B
120
Direct
   0.0000000000000000  0.0000000000000000  0.0000000000000000 B
   0.9250000000000043  0.7500000000000062  0.0000000000000000 B
   0.9833333333333369  0.8333333333333393  0.0000000000000000 B
   0.0416666666666705  0.9166666666666723  0.0000000000000000 B
   0.1000000000000041  0.0000000000000062  0.0000000000000000 B
   0.1583333333333368  0.0833333333333393  0.0000000000000000 B
   0.2166666666666703  0.1666666666666723  0.0000000000000000 B
   0.2750000000000030  0.2500000000000053  0.0000000000000000 B
   0.3333333333333375  0.3333333333333393  0.0000000000000000 B
   0.3916666666666702  0.4166666666666723  0.0000000000000000 B
   0.4500000000000037  0.5000000000000053  0.0000000000000000 B
   0.5083333333333373  0.5833333333333393  0.0000000000000000 B
   0.5666666666666700  0.6666666666666723  0.0000000000000000 B
   0.8666666666666707  0.6666666666666741  0.0000000000000000 B
   0.6250000000000036  0.7500000000000053  0.0000000000000000 B
   0.7416666666666707  0.9166666666666723  0.0000000000000000 B
   0.8000000000000034  0.0000000000000053  0.0000000000000000 B
   0.8583333333333361  0.0833333333333384  0.0000000000000000 B
   0.9166666666666696  0.1666666666666714  0.0000000000000000 B
   0.9750000000000032  0.2500000000000053  0.0000000000000000 B
   0.0333333333333363  0.3333333333333384  0.0000000000000000 B
   0.0916666666666694  0.4166666666666714  0.0000000000000000 B
   0.1500000000000026  0.5000000000000044  0.0000000000000000 B
   0.2083333333333366  0.5833333333333384  0.0000000000000000 B
   0.2666666666666697  0.6666666666666714  0.0000000000000000 B
   0.3250000000000028  0.7500000000000044  0.0000000000000000 B
   0.3833333333333364  0.8333333333333384  0.0000000000000000 B
   0.6833333333333362  0.8333333333333384  0.0000000000000000 B
   0.4416666666666695  0.9166666666666714  0.0000000000000000 B
   0.8083333333333371  0.5833333333333393  0.0000000000000000 B
   0.6916666666666709  0.4166666666666741  0.0000000000000000 B
   0.1750000000000052  0.2500000000000089  0.0000000000000000 B
   0.2333333333333387  0.3333333333333410  0.0000000000000000 B
   0.2916666666666714  0.4166666666666750  0.0000000000000000 B
   0.3500000000000050  0.5000000000000089  0.0000000000000000 B
   0.4083333333333385  0.5833333333333410  0.0000000000000000 B
   0.4666666666666712  0.6666666666666750  0.0000000000000000 B
   0.5250000000000057  0.7500000000000089  0.0000000000000000 B
   0.5833333333333384  0.8333333333333410  0.0000000000000000 B
   0.6416666666666719  0.9166666666666750  0.0000000000000000 B
   0.7000000000000046  0.0000000000000071  0.0000000000000000 B
   0.7583333333333382  0.0833333333333410  0.0000000000000000 B
   0.8166666666666718  0.1666666666666750  0.0000000000000000 B
   0.7500000000000036  0.5000000000000071  0.0000000000000000 B
   0.8750000000000044  0.2500000000000071  0.0000000000000000 B
   0.9916666666666716  0.4166666666666750  0.0000000000000000 B
   0.0500000000000043  0.5000000000000071  0.0000000000000000 B
   0.1083333333333378  0.5833333333333410  0.0000000000000000 B
   0.1666666666666705  0.6666666666666732  0.0000000000000000 B
   0.2250000000000050  0.7500000000000071  0.0000000000000000 B
   0.2833333333333377  0.8333333333333410  0.0000000000000000 B
   0.3416666666666712  0.9166666666666732  0.0000000000000000 B
   0.4000000000000039  0.0000000000000071  0.0000000000000000 B
   0.4583333333333375  0.0833333333333410  0.0000000000000000 B
   0.5166666666666710  0.1666666666666741  0.0000000000000000 B
   0.5750000000000037  0.2500000000000071  0.0000000000000000 B
   0.6333333333333382  0.3333333333333410  0.0000000000000000 B
   0.9333333333333380  0.3333333333333410  0.0000000000000000 B
   0.5000000000000027  0.0000000000000044  0.0000000000000000 B
   0.5583333333333362  0.0833333333333384  0.0000000000000000 B
   0.6166666666666694  0.1666666666666705  0.0000000000000000 B
   0.4833333333333345  0.8333333333333353  0.0000000000000000 B
   0.5416666666666676  0.9166666666666683  0.0000000000000000 B
   0.6000000000000010  0.0000000000000018  0.0000000000000000 B
   0.6583333333333345  0.0833333333333353  0.0000000000000000 B
   0.7166666666666677  0.1666666666666685  0.0000000000000000 B
   0.7750000000000010  0.2500000000000016  0.0000000000000000 B
   0.8333333333333344  0.3333333333333348  0.0000000000000000 B
   0.8916666666666675  0.4166666666666681  0.0000000000000000 B
   0.9500000000000008  0.5000000000000013  0.0000000000000000 B
   0.0083333333333341  0.5833333333333346  0.0000000000000000 B
   0.0666666666666674  0.6666666666666679  0.0000000000000000 B
   0.1250000000000007  0.7500000000000011  0.0000000000000000 B
   0.4250000000000012  0.7500000000000018  0.0000000000000000 B
   0.1833333333333339  0.8333333333333344  0.0000000000000000 B
   0.3000000000000005  0.0000000000000009  0.0000000000000000 B
   0.3583333333333338  0.0833333333333343  0.0000000000000000 B
   0.4166666666666672  0.1666666666666674  0.0000000000000000 B
   0.4750000000000004  0.2500000000000007  0.0000000000000000 B
   0.5333333333333337  0.3333333333333339  0.0000000000000000 B
   0.5916666666666670  0.4166666666666672  0.0000000000000000 B
   0.6500000000000002  0.5000000000000004  0.0000000000000000 B
   0.7083333333333336  0.5833333333333337  0.0000000000000000 B
   0.7666666666666668  0.6666666666666670  0.0000000000000000 B
   0.8250000000000002  0.7500000000000002  0.0000000000000000 B
   0.8833333333333334  0.8333333333333335  0.0000000000000000 B
   0.9416666666666668  0.9166666666666667  0.0000000000000000 B
   0.2416666666666673  0.9166666666666676  0.0000000000000000 B
   0.3666666666666678  0.6666666666666687  0.0000000000000000 B
   0.3083333333333347  0.5833333333333353  0.0000000000000000 B
   0.2500000000000013  0.5000000000000022  0.0000000000000000 B
   0.6750000000000025  0.2500000000000044  0.0000000000000000 B
   0.7333333333333356  0.3333333333333375  0.0000000000000000 B
   0.7916666666666692  0.4166666666666705  0.0000000000000000 B
   0.8500000000000023  0.5000000000000036  0.0000000000000000 B
   0.9083333333333359  0.5833333333333375  0.0000000000000000 B
   0.9666666666666690  0.6666666666666705  0.0000000000000000 B
   0.0250000000000021  0.7500000000000036  0.0000000000000000 B
   0.0833333333333353  0.8333333333333366  0.0000000000000000 B
   0.1416666666666688  0.9166666666666705  0.0000000000000000 B
   0.2000000000000020  0.0000000000000036  0.0000000000000000 B
   0.2583333333333355  0.0833333333333370  0.0000000000000000 B
   0.3166666666666691  0.1666666666666705  0.0000000000000000 B
   0.3750000000000018  0.2500000000000036  0.0000000000000000 B
   0.4333333333333353  0.3333333333333370  0.0000000000000000 B
   0.4916666666666685  0.4166666666666696  0.0000000000000000 B
   0.5500000000000020  0.5000000000000031  0.0000000000000000 B
   0.6083333333333352  0.5833333333333361  0.0000000000000000 B
   0.6666666666666687  0.6666666666666696  0.0000000000000000 B
   0.7250000000000019  0.7500000000000027  0.0000000000000000 B
   0.7833333333333350  0.8333333333333361  0.0000000000000000 B
   0.8416666666666681  0.9166666666666692  0.0000000000000000 B
   0.9000000000000017  0.0000000000000027  0.0000000000000000 B
   0.9583333333333348  0.0833333333333357  0.0000000000000000 B
   0.0166666666666682  0.1666666666666692  0.0000000000000000 B
   0.0750000000000013  0.2500000000000022  0.0000000000000000 B
   0.1333333333333349  0.3333333333333357  0.0000000000000000 B
   0.1916666666666682  0.4166666666666692  0.0000000000000000 B
   0.1166666666666725  0.1666666666666767  0.0000000000000000 B
   0.0583333333333380  0.0833333333333410  0.0000000000000000 B
