B120
 1.000000
   -14.4499999999999744    4.4167295591759910   -0.0000000000000000
    10.2000000000000028   17.6669182367040491   -0.0000000000000000
    -0.0000000000000000   -0.0000000000000000  -10.8800000000000008
B
120
Direct
   0.0000000000000000  0.0000000000000000  0.0000000000000000 B
   0.3000000000000629  0.9250000000000371  0.0000000000000000 B
   0.4000000000000608  0.9833333333333698  0.0000000000000000 B
   0.5000000000000604  0.0416666666667025  0.0000000000000000 B
   0.6000000000000600  0.1000000000000361  0.0000000000000000 B
   0.7000000000000597  0.1583333333333687  0.0000000000000000 B
   0.8000000000000576  0.2166666666667014  0.0000000000000000 B
   0.9000000000000572  0.2750000000000341  0.0000000000000000 B
   0.0000000000000568  0.3333333333333677  0.0000000000000000 B
   0.1000000000000565  0.3916666666667004  0.0000000000000000 B
   0.2000000000000552  0.4500000000000330  0.0000000000000000 B
   0.3000000000000558  0.5083333333333666  0.0000000000000000 B
   0.4000000000000545  0.5666666666666993  0.0000000000000000 B
   0.2000000000000632  0.8666666666667044  0.0000000000000000 B
   0.5000000000000533  0.6250000000000320  0.0000000000000000 B
   0.7000000000000526  0.7416666666666982  0.0000000000000000 B
   0.8000000000000513  0.8000000000000309  0.0000000000000000 B
   0.9000000000000501  0.8583333333333636  0.0000000000000000 B
   0.0000000000000497  0.9166666666666963  0.0000000000000000 B
   0.1000000000000494  0.9750000000000298  0.0000000000000000 B
   0.2000000000000481  0.0333333333333621  0.0000000000000000 B
   0.3000000000000478  0.0916666666666948  0.0000000000000000 B
   0.4000000000000465  0.1500000000000274  0.0000000000000000 B
   0.5000000000000462  0.2083333333333610  0.0000000000000000 B
   0.6000000000000458  0.2666666666666937  0.0000000000000000 B
   0.7000000000000446  0.3250000000000264  0.0000000000000000 B
   0.8000000000000451  0.3833333333333599  0.0000000000000000 B
   0.6000000000000520  0.6833333333333647  0.0000000000000000 B
   0.9000000000000439  0.4416666666666926  0.0000000000000000 B
   0.1000000000000636  0.8083333333333709  0.0000000000000000 B
   0.9000000000000643  0.6916666666667055  0.0000000000000000 B
   0.3000000000000842  0.1750000000000496  0.0000000000000000 B
   0.4000000000000821  0.2333333333333822  0.0000000000000000 B
   0.5000000000000817  0.2916666666667149  0.0000000000000000 B
   0.6000000000000814  0.3500000000000485  0.0000000000000000 B
   0.7000000000000810  0.4083333333333812  0.0000000000000000 B
   0.8000000000000789  0.4666666666667139  0.0000000000000000 B
   0.9000000000000803  0.5250000000000474  0.0000000000000000 B
   0.0000000000000782  0.5833333333333801  0.0000000000000000 B
   0.1000000000000778  0.6416666666667128  0.0000000000000000 B
   0.2000000000000757  0.7000000000000455  0.0000000000000000 B
   0.3000000000000771  0.7583333333333790  0.0000000000000000 B
   0.4000000000000750  0.8166666666667117  0.0000000000000000 B
   0.0000000000000639  0.7500000000000382  0.0000000000000000 B
   0.5000000000000746  0.8750000000000444  0.0000000000000000 B
   0.7000000000000739  0.9916666666667107  0.0000000000000000 B
   0.8000000000000735  0.0500000000000433  0.0000000000000000 B
   0.9000000000000714  0.1083333333333760  0.0000000000000000 B
   0.0000000000000711  0.1666666666667087  0.0000000000000000 B
   0.1000000000000707  0.2250000000000423  0.0000000000000000 B
   0.2000000000000703  0.2833333333333750  0.0000000000000000 B
   0.3000000000000682  0.3416666666667076  0.0000000000000000 B
   0.4000000000000679  0.4000000000000403  0.0000000000000000 B
   0.5000000000000675  0.4583333333333739  0.0000000000000000 B
   0.6000000000000671  0.5166666666667066  0.0000000000000000 B
   0.7000000000000650  0.5750000000000393  0.0000000000000000 B
   0.8000000000000664  0.6333333333333728  0.0000000000000000 B
   0.6000000000000743  0.9333333333333771  0.0000000000000000 B
   0.0000000000000426  0.5000000000000253  0.0000000000000000 B
   0.1000000000000423  0.5583333333333584  0.0000000000000000 B
   0.2000000000000410  0.6166666666666911  0.0000000000000000 B
   0.4000000000000186  0.4833333333333443  0.0000000000000000 B
   0.5000000000000178  0.5416666666666772  0.0000000000000000 B
   0.6000000000000170  0.6000000000000101  0.0000000000000000 B
   0.7000000000000166  0.6583333333333432  0.0000000000000000 B
   0.8000000000000158  0.7166666666666761  0.0000000000000000 B
   0.9000000000000150  0.7750000000000090  0.0000000000000000 B
   0.0000000000000142  0.8333333333333419  0.0000000000000000 B
   0.1000000000000136  0.8916666666666748  0.0000000000000000 B
   0.2000000000000128  0.9500000000000077  0.0000000000000000 B
   0.3000000000000120  0.0083333333333405  0.0000000000000000 B
   0.4000000000000115  0.0666666666666734  0.0000000000000000 B
   0.5000000000000107  0.1250000000000063  0.0000000000000000 B
   0.3000000000000189  0.4250000000000114  0.0000000000000000 B
   0.6000000000000099  0.1833333333333392  0.0000000000000000 B
   0.8000000000000085  0.3000000000000050  0.0000000000000000 B
   0.9000000000000079  0.3583333333333381  0.0000000000000000 B
   0.0000000000000071  0.4166666666666710  0.0000000000000000 B
   0.1000000000000064  0.4750000000000039  0.0000000000000000 B
   0.2000000000000057  0.5333333333333368  0.0000000000000000 B
   0.3000000000000049  0.5916666666666697  0.0000000000000000 B
   0.4000000000000042  0.6500000000000026  0.0000000000000000 B
   0.5000000000000036  0.7083333333333355  0.0000000000000000 B
   0.6000000000000029  0.7666666666666684  0.0000000000000000 B
   0.7000000000000022  0.8250000000000013  0.0000000000000000 B
   0.8000000000000014  0.8833333333333342  0.0000000000000000 B
   0.9000000000000007  0.9416666666666671  0.0000000000000000 B
   0.7000000000000093  0.2416666666666721  0.0000000000000000 B
   0.2000000000000197  0.3666666666666785  0.0000000000000000 B
   0.1000000000000205  0.3083333333333456  0.0000000000000000 B
   0.0000000000000213  0.2500000000000127  0.0000000000000000 B
   0.3000000000000407  0.6750000000000242  0.0000000000000000 B
   0.4000000000000394  0.7333333333333569  0.0000000000000000 B
   0.5000000000000391  0.7916666666666901  0.0000000000000000 B
   0.6000000000000378  0.8500000000000227  0.0000000000000000 B
   0.7000000000000375  0.9083333333333559  0.0000000000000000 B
   0.8000000000000371  0.9666666666666885  0.0000000000000000 B
   0.9000000000000368  0.0250000000000217  0.0000000000000000 B
   0.0000000000000355  0.0833333333333544  0.0000000000000000 B
   0.1000000000000352  0.1416666666666875  0.0000000000000000 B
   0.2000000000000339  0.2000000000000202  0.0000000000000000 B
   0.3000000000000336  0.2583333333333533  0.0000000000000000 B
   0.4000000000000332  0.3166666666666864  0.0000000000000000 B
   0.5000000000000320  0.3750000000000191  0.0000000000000000 B
   0.6000000000000316  0.4333333333333522  0.0000000000000000 B
   0.7000000000000304  0.4916666666666849  0.0000000000000000 B
   0.8000000000000300  0.5500000000000180  0.0000000000000000 B
   0.9000000000000288  0.6083333333333507  0.0000000000000000 B
   0.0000000000000284  0.6666666666666838  0.0000000000000000 B
   0.1000000000000276  0.7250000000000165  0.0000000000000000 B
   0.2000000000000273  0.7833333333333496  0.0000000000000000 B
   0.3000000000000260  0.8416666666666823  0.0000000000000000 B
   0.4000000000000257  0.9000000000000155  0.0000000000000000 B
   0.5000000000000249  0.9583333333333481  0.0000000000000000 B
   0.6000000000000241  0.0166666666666810  0.0000000000000000 B
   0.7000000000000233  0.0750000000000137  0.0000000000000000 B
   0.8000000000000229  0.1333333333333468  0.0000000000000000 B
   0.9000000000000226  0.1916666666666800  0.0000000000000000 B
   0.2000000000000846  0.1166666666667169  0.0000000000000000 B
   0.1000000000000849  0.0583333333333833  0.0000000000000000 B
