B110
 1.000000
    -1.7000000000000002   -0.0000000000000000   -0.0000000000000000
    -0.0000000000000000  161.9467505031200005   -0.0000000000000000
    -0.0000000000000000   -0.0000000000000000  -10.8800000000000008
B
110
Direct
   0.0000000000000000  0.0000000000000000  0.0000000000000000 B
   0.5000000000000000  0.2818181818181819  0.0000000000000000 B
   0.0000000000000000  0.2909090909090909  0.0000000000000000 B
   0.5000000000000000  0.3000000000000000  0.0000000000000000 B
   0.0000000000000000  0.3090909090909091  0.0000000000000000 B
   0.5000000000000000  0.3181818181818182  0.0000000000000000 B
   0.0000000000000000  0.3272727272727273  0.0000000000000000 B
   0.5000000000000000  0.3363636363636364  0.0000000000000000 B
   0.0000000000000000  0.3454545454545455  0.0000000000000000 B
   0.5000000000000000  0.3545454545454546  0.0000000000000000 B
   0.0000000000000000  0.3636363636363636  0.0000000000000000 B
   0.5000000000000071  0.3727272727272728  0.0000000000000000 B
   0.0000000000000000  0.3818181818181818  0.0000000000000000 B
   0.5000000000000071  0.3909090909090910  0.0000000000000000 B
   0.0000000000000000  0.4000000000000000  0.0000000000000000 B
   0.5000000000000071  0.4090909090909092  0.0000000000000000 B
   0.0000000000000000  0.4181818181818182  0.0000000000000000 B
   0.5000000000000000  0.4272727272727272  0.0000000000000000 B
   0.0000000000000036  0.4363636363636364  0.0000000000000000 B
   0.5000000000000000  0.4454545454545454  0.0000000000000000 B
   0.0000000000000036  0.4545454545454546  0.0000000000000000 B
   0.5000000000000000  0.4636363636363636  0.0000000000000000 B
   0.0000000000000036  0.4727272727272728  0.0000000000000000 B
   0.5000000000000000  0.4818181818181818  0.0000000000000000 B
   0.0000000000000000  0.2727272727272727  0.0000000000000000 B
   0.5000000000000000  0.2636363636363637  0.0000000000000000 B
   0.0000000000000071  0.2545454545454546  0.0000000000000000 B
   0.5000000000000000  0.2454545454545455  0.0000000000000000 B
   0.5000000000000000  0.0272727272727273  0.0000000000000000 B
   0.0000000000000000  0.0363636363636364  0.0000000000000000 B
   0.5000000000000071  0.0454545454545455  0.0000000000000000 B
   0.0000000000000000  0.0545454545454546  0.0000000000000000 B
   0.5000000000000071  0.0636363636363637  0.0000000000000000 B
   0.0000000000000000  0.0727272727272728  0.0000000000000000 B
   0.5000000000000071  0.0818181818181819  0.0000000000000000 B
   0.0000000000000000  0.0909090909090909  0.0000000000000000 B
   0.5000000000000071  0.1000000000000001  0.0000000000000000 B
   0.0000000000000000  0.1090909090909091  0.0000000000000000 B
   0.5000000000000071  0.1181818181818183  0.0000000000000000 B
   0.0000000000000036  0.4909090909090910  0.0000000000000000 B
   0.0000000000000000  0.1272727272727273  0.0000000000000000 B
   0.0000000000000000  0.1454545454545455  0.0000000000000000 B
   0.5000000000000000  0.1545454545454545  0.0000000000000000 B
   0.0000000000000000  0.1636363636363637  0.0000000000000000 B
   0.5000000000000000  0.1727272727272727  0.0000000000000000 B
   0.0000000000000000  0.1818181818181819  0.0000000000000000 B
   0.5000000000000000  0.1909090909090909  0.0000000000000000 B
   0.0000000000000071  0.2000000000000001  0.0000000000000000 B
   0.5000000000000000  0.2090909090909091  0.0000000000000000 B
   0.0000000000000071  0.2181818181818183  0.0000000000000000 B
   0.5000000000000000  0.2272727272727273  0.0000000000000000 B
   0.0000000000000071  0.2363636363636364  0.0000000000000000 B
   0.5000000000000000  0.1363636363636364  0.0000000000000000 B
   0.5000000000000000  0.5000000000000000  0.0000000000000000 B
   0.0000000000000000  0.5090909090909090  0.0000000000000000 B
   0.5000000000000000  0.5181818181818182  0.0000000000000000 B
   0.0000000000000000  0.7818181818181819  0.0000000000000000 B
   0.5000000000000000  0.7909090909090909  0.0000000000000000 B
   0.0000000000000018  0.8000000000000000  0.0000000000000000 B
   0.5000000000000018  0.8090909090909091  0.0000000000000000 B
   0.0000000000000000  0.8181818181818181  0.0000000000000000 B
   0.5000000000000000  0.8272727272727273  0.0000000000000000 B
   0.0000000000000000  0.8363636363636364  0.0000000000000000 B
   0.5000000000000000  0.8454545454545455  0.0000000000000000 B
   0.0000000000000000  0.8545454545454545  0.0000000000000000 B
   0.5000000000000009  0.8636363636363636  0.0000000000000000 B
   0.0000000000000009  0.8727272727272728  0.0000000000000000 B
   0.5000000000000000  0.7727272727272727  0.0000000000000000 B
   0.5000000000000000  0.8818181818181818  0.0000000000000000 B
   0.5000000000000009  0.9000000000000000  0.0000000000000000 B
   0.0000000000000000  0.9090909090909091  0.0000000000000000 B
   0.5000000000000000  0.9181818181818182  0.0000000000000000 B
   0.0000000000000000  0.9272727272727272  0.0000000000000000 B
   0.5000000000000004  0.9363636363636364  0.0000000000000000 B
   0.0000000000000000  0.9454545454545454  0.0000000000000000 B
   0.5000000000000000  0.9545454545454546  0.0000000000000000 B
   0.0000000000000000  0.9636363636363636  0.0000000000000000 B
   0.5000000000000000  0.9727272727272728  0.0000000000000000 B
   0.0000000000000000  0.9818181818181818  0.0000000000000000 B
   0.5000000000000000  0.9909090909090910  0.0000000000000000 B
   0.0000000000000000  0.8909090909090909  0.0000000000000000 B
   0.0000000000000000  0.0181818181818182  0.0000000000000000 B
   0.0000000000000000  0.7636363636363637  0.0000000000000000 B
   0.0000000000000018  0.7454545454545455  0.0000000000000000 B
   0.0000000000000000  0.5272727272727273  0.0000000000000000 B
   0.5000000000000000  0.5363636363636364  0.0000000000000000 B
   0.0000000000000000  0.5454545454545454  0.0000000000000000 B
   0.5000000000000000  0.5545454545454546  0.0000000000000000 B
   0.0000000000000000  0.5636363636363637  0.0000000000000000 B
   0.5000000000000000  0.5727272727272728  0.0000000000000000 B
   0.0000000000000000  0.5818181818181818  0.0000000000000000 B
   0.5000000000000000  0.5909090909090909  0.0000000000000000 B
   0.0000000000000036  0.6000000000000001  0.0000000000000000 B
   0.5000000000000036  0.6090909090909091  0.0000000000000000 B
   0.0000000000000036  0.6181818181818182  0.0000000000000000 B
   0.5000000000000000  0.7545454545454545  0.0000000000000000 B
   0.5000000000000036  0.6272727272727273  0.0000000000000000 B
   0.5000000000000000  0.6454545454545455  0.0000000000000000 B
   0.0000000000000000  0.6545454545454545  0.0000000000000000 B
   0.5000000000000000  0.6636363636363636  0.0000000000000000 B
   0.0000000000000000  0.6727272727272727  0.0000000000000000 B
   0.5000000000000000  0.6818181818181819  0.0000000000000000 B
   0.0000000000000000  0.6909090909090909  0.0000000000000000 B
   0.5000000000000000  0.7000000000000000  0.0000000000000000 B
   0.0000000000000000  0.7090909090909091  0.0000000000000000 B
   0.5000000000000018  0.7181818181818183  0.0000000000000000 B
   0.0000000000000018  0.7272727272727273  0.0000000000000000 B
   0.5000000000000018  0.7363636363636363  0.0000000000000000 B
   0.0000000000000000  0.6363636363636364  0.0000000000000000 B
   0.5000000000000000  0.0090909090909091  0.0000000000000000 B
