B112
 1.000000
   -14.4500000000000171   -7.3612159319600039   -0.0000000000000000
    -3.3999999999999915   17.6669182367039923   -0.0000000000000000
    -0.0000000000000000   -0.0000000000000000  -10.8800000000000008
B
112
Direct
   0.0000000000000000  0.0000000000000000  0.0000000000000000 B
   0.1071428571428545  0.0446428571428497  0.0000000000000000 B
   0.1428571428571406  0.1428571428571361  0.0000000000000000 B
   0.1785714285714262  0.2410714285714217  0.0000000000000000 B
   0.2142857142857117  0.3392857142857073  0.0000000000000000 B
   0.2499999999999973  0.4374999999999929  0.0000000000000000 B
   0.2857142857142838  0.5357142857142794  0.0000000000000000 B
   0.3214285714285694  0.6339285714285650  0.0000000000000000 B
   0.3571428571428550  0.7321428571428505  0.0000000000000000 B
   0.3928571428571406  0.8303571428571361  0.0000000000000000 B
   0.4285714285714266  0.9285714285714226  0.0000000000000000 B
   0.4642857142857122  0.0267857142857082  0.0000000000000000 B
   0.0714285714285690  0.9464285714285641  0.0000000000000000 B
   0.4999999999999978  0.1249999999999929  0.0000000000000000 B
   0.5714285714285694  0.3214285714285658  0.0000000000000000 B
   0.6071428571428550  0.4196428571428505  0.0000000000000000 B
   0.6428571428571406  0.5178571428571361  0.0000000000000000 B
   0.6785714285714266  0.6160714285714235  0.0000000000000000 B
   0.7142857142857122  0.7142857142857082  0.0000000000000000 B
   0.7499999999999982  0.8124999999999938  0.0000000000000000 B
   0.7857142857142843  0.9107142857142803  0.0000000000000000 B
   0.8214285714285698  0.0089285714285658  0.0000000000000000 B
   0.8571428571428554  0.1071428571428514  0.0000000000000000 B
   0.8928571428571410  0.2053571428571370  0.0000000000000000 B
   0.9285714285714270  0.3035714285714235  0.0000000000000000 B
   0.5357142857142838  0.2232142857142803  0.0000000000000000 B
   0.9642857142857126  0.4017857142857091  0.0000000000000000 B
   0.0357142857142834  0.8482142857142794  0.0000000000000000 B
   0.9642857142857117  0.6517857142857064  0.0000000000000000 B
   0.1071428571428537  0.2946428571428470  0.0000000000000000 B
   0.1428571428571397  0.3928571428571335  0.0000000000000000 B
   0.1785714285714253  0.4910714285714199  0.0000000000000000 B
   0.2142857142857109  0.5892857142857046  0.0000000000000000 B
   0.2499999999999964  0.6874999999999893  0.0000000000000000 B
   0.2857142857142829  0.7857142857142758  0.0000000000000000 B
   0.3214285714285685  0.8839285714285623  0.0000000000000000 B
   0.3571428571428541  0.9821428571428470  0.0000000000000000 B
   0.3928571428571401  0.0803571428571335  0.0000000000000000 B
   0.4285714285714257  0.1785714285714199  0.0000000000000000 B
   0.4642857142857113  0.2767857142857046  0.0000000000000000 B
   0.9999999999999973  0.7499999999999929  0.0000000000000000 B
   0.4999999999999969  0.3749999999999911  0.0000000000000000 B
   0.5714285714285685  0.5714285714285623  0.0000000000000000 B
   0.6071428571428541  0.6696428571428488  0.0000000000000000 B
   0.6428571428571401  0.7678571428571352  0.0000000000000000 B
   0.6785714285714257  0.8660714285714199  0.0000000000000000 B
   0.7142857142857113  0.9642857142857064  0.0000000000000000 B
   0.7499999999999973  0.0624999999999911  0.0000000000000000 B
   0.7857142857142834  0.1607142857142776  0.0000000000000000 B
   0.8214285714285690  0.2589285714285641  0.0000000000000000 B
   0.8571428571428545  0.3571428571428488  0.0000000000000000 B
   0.8928571428571406  0.4553571428571352  0.0000000000000000 B
   0.9285714285714262  0.5535714285714217  0.0000000000000000 B
   0.5357142857142829  0.4732142857142776  0.0000000000000000 B
   0.9999999999999982  0.4999999999999947  0.0000000000000000 B
   0.0357142857142840  0.5982142857142811  0.0000000000000000 B
   0.0714285714285698  0.6964285714285667  0.0000000000000000 B
   0.1428571428571421  0.6428571428571406  0.0000000000000000 B
   0.1785714285714278  0.7410714285714266  0.0000000000000000 B
   0.2142857142857136  0.8392857142857122  0.0000000000000000 B
   0.2499999999999993  0.9374999999999982  0.0000000000000000 B
   0.2857142857142851  0.0357142857142840  0.0000000000000000 B
   0.3214285714285710  0.1339285714285698  0.0000000000000000 B
   0.3571428571428567  0.2321428571428557  0.0000000000000000 B
   0.3928571428571423  0.3303571428571415  0.0000000000000000 B
   0.4285714285714280  0.4285714285714270  0.0000000000000000 B
   0.4642857142857139  0.5267857142857129  0.0000000000000000 B
   0.4999999999999996  0.6249999999999987  0.0000000000000000 B
   0.1071428571428564  0.5446428571428550  0.0000000000000000 B
   0.5357142857142854  0.7232142857142845  0.0000000000000000 B
   0.6071428571428568  0.9196428571428561  0.0000000000000000 B
   0.6428571428571426  0.0178571428571420  0.0000000000000000 B
   0.6785714285714284  0.1160714285714278  0.0000000000000000 B
   0.7142857142857140  0.2142857142857135  0.0000000000000000 B
   0.7499999999999998  0.3124999999999993  0.0000000000000000 B
   0.7857142857142856  0.4107142857142851  0.0000000000000000 B
   0.8214285714285713  0.5089285714285710  0.0000000000000000 B
   0.8571428571428570  0.6071428571428568  0.0000000000000000 B
   0.8928571428571428  0.7053571428571426  0.0000000000000000 B
   0.9285714285714285  0.8035714285714284  0.0000000000000000 B
   0.9642857142857143  0.9017857142857142  0.0000000000000000 B
   0.5714285714285711  0.8214285714285703  0.0000000000000000 B
   0.0714285714285707  0.4464285714285690  0.0000000000000000 B
   0.0357142857142849  0.3482142857142834  0.0000000000000000 B
   0.9999999999999991  0.2499999999999973  0.0000000000000000 B
   0.1071428571428554  0.7946428571428523  0.0000000000000000 B
   0.1428571428571415  0.8928571428571379  0.0000000000000000 B
   0.1785714285714270  0.9910714285714235  0.0000000000000000 B
   0.2142857142857129  0.0892857142857100  0.0000000000000000 B
   0.2499999999999984  0.1874999999999956  0.0000000000000000 B
   0.2857142857142843  0.2857142857142811  0.0000000000000000 B
   0.3214285714285701  0.3839285714285676  0.0000000000000000 B
   0.3571428571428557  0.4821428571428532  0.0000000000000000 B
   0.3928571428571417  0.5803571428571388  0.0000000000000000 B
   0.4285714285714273  0.6785714285714244  0.0000000000000000 B
   0.4642857142857131  0.7767857142857109  0.0000000000000000 B
   0.4999999999999987  0.8749999999999964  0.0000000000000000 B
   0.5357142857142845  0.9732142857142820  0.0000000000000000 B
   0.5714285714285703  0.0714285714285681  0.0000000000000000 B
   0.6071428571428559  0.1696428571428537  0.0000000000000000 B
   0.6428571428571419  0.2678571428571397  0.0000000000000000 B
   0.6785714285714275  0.3660714285714253  0.0000000000000000 B
   0.7142857142857133  0.4642857142857113  0.0000000000000000 B
   0.7499999999999989  0.5624999999999964  0.0000000000000000 B
   0.7857142857142847  0.6607142857142829  0.0000000000000000 B
   0.8214285714285703  0.7589285714285681  0.0000000000000000 B
   0.8571428571428561  0.8571428571428541  0.0000000000000000 B
   0.8928571428571421  0.9553571428571401  0.0000000000000000 B
   0.9285714285714277  0.0535714285714257  0.0000000000000000 B
   0.9642857142857135  0.1517857142857117  0.0000000000000000 B
   0.0714285714285681  0.1964285714285623  0.0000000000000000 B
   0.0357142857142825  0.0982142857142758  0.0000000000000000 B
