B175
 1.000000
     8.5000000000000000    0.0000000000000000    0.0000000000000000
    -2.5499999999999829   51.5285115237199989    0.0000000000000000
     0.0000000000000000    0.0000000000000000   10.8800000000000008
B
175
Direct
   0.0000000000000000  0.0000000000000000  0.0000000000000000 B
   0.8514285714285723  0.1714285714285713  0.0000000000000000 B
   0.7599999999999998  0.2000000000000002  0.0000000000000000 B
   0.6685714285714290  0.2285714285714286  0.0000000000000000 B
   0.5771428571428565  0.2571428571428571  0.0000000000000000 B
   0.4857142857142858  0.2857142857142856  0.0000000000000000 B
   0.3942857142857150  0.3142857142857141  0.0000000000000000 B
   0.3028571428571425  0.3428571428571430  0.0000000000000000 B
   0.2114285714285717  0.3714285714285714  0.0000000000000000 B
   0.9428571428571431  0.1428571428571428  0.0000000000000000 B
   0.1199999999999992  0.4000000000000004  0.0000000000000000 B
   0.9371428571428577  0.4571428571428569  0.0000000000000000 B
   0.8457142857142852  0.4857142857142858  0.0000000000000000 B
   0.7542857142857144  0.5142857142857142  0.0000000000000000 B
   0.6628571428571437  0.5428571428571427  0.0000000000000000 B
   0.5714285714285712  0.5714285714285716  0.0000000000000000 B
   0.4800000000000004  0.5999999999999996  0.0000000000000000 B
   0.3885714285714279  0.6285714285714290  0.0000000000000000 B
   0.2971428571428572  0.6571428571428570  0.0000000000000000 B
   0.0285714285714285  0.4285714285714288  0.0000000000000000 B
   0.2057142857142864  0.6857142857142855  0.0000000000000000 B
   0.0342857142857138  0.1142857142857143  0.0000000000000000 B
   0.2171428571428571  0.0571428571428569  0.0000000000000000 B
   0.8628571428571430  0.5428571428571427  0.0000000000000000 B
   0.7714285714285722  0.5714285714285712  0.0000000000000000 B
   0.6799999999999997  0.6000000000000001  0.0000000000000000 B
   0.5885714285714290  0.6285714285714286  0.0000000000000000 B
   0.4971428571428564  0.6571428571428575  0.0000000000000000 B
   0.4057142857142857  0.6857142857142859  0.0000000000000000 B
   0.3142857142857149  0.7142857142857140  0.0000000000000000 B
   0.2228571428571424  0.7428571428571429  0.0000000000000000 B
   0.1257142857142863  0.0857142857142854  0.0000000000000000 B
   0.1314285714285717  0.7714285714285714  0.0000000000000000 B
   0.9485714285714284  0.8285714285714287  0.0000000000000000 B
   0.8571428571428577  0.8571428571428568  0.0000000000000000 B
   0.7657142857142851  0.8857142857142861  0.0000000000000000 B
   0.6742857142857144  0.9142857142857141  0.0000000000000000 B
   0.5828571428571436  0.9428571428571426  0.0000000000000000 B
   0.4914285714285711  0.9714285714285715  0.0000000000000000 B
   0.4000000000000004  0.0000000000000000  0.0000000000000000 B
   0.3085714285714278  0.0285714285714289  0.0000000000000000 B
   0.0399999999999991  0.8000000000000003  0.0000000000000000 B
   0.9542857142857137  0.5142857142857142  0.0000000000000000 B
   0.1142857142857139  0.7142857142857144  0.0000000000000000 B
   0.9314285714285706  0.7714285714285718  0.0000000000000000 B
   0.8285714285714292  0.4285714285714288  0.0000000000000000 B
   0.7371428571428567  0.4571428571428573  0.0000000000000000 B
   0.6457142857142859  0.4857142857142858  0.0000000000000000 B
   0.5542857142857152  0.5142857142857142  0.0000000000000000 B
   0.4628571428571426  0.5428571428571427  0.0000000000000000 B
   0.3714285714285719  0.5714285714285712  0.0000000000000000 B
   0.2799999999999994  0.6000000000000005  0.0000000000000000 B
   0.1885714285714286  0.6285714285714281  0.0000000000000000 B
   0.9199999999999999  0.4000000000000004  0.0000000000000000 B
   0.0971428571428579  0.6571428571428566  0.0000000000000000 B
   0.9142857142857146  0.7142857142857144  0.0000000000000000 B
   0.8228571428571421  0.7428571428571429  0.0000000000000000 B
   0.7314285714285713  0.7714285714285714  0.0000000000000000 B
   0.6400000000000006  0.7999999999999998  0.0000000000000000 B
   0.5485714285714280  0.8285714285714292  0.0000000000000000 B
   0.4571428571428573  0.8571428571428568  0.0000000000000000 B
   0.3657142857142865  0.8857142857142852  0.0000000000000000 B
   0.2742857142857140  0.9142857142857146  0.0000000000000000 B
   0.0057142857142853  0.6857142857142859  0.0000000000000000 B
   0.0228571428571431  0.7428571428571429  0.0000000000000000 B
   0.0114285714285707  0.3714285714285719  0.0000000000000000 B
   0.1942857142857140  0.3142857142857141  0.0000000000000000 B
   0.8399999999999999  0.7999999999999998  0.0000000000000000 B
   0.7485714285714291  0.8285714285714283  0.0000000000000000 B
   0.6571428571428566  0.8571428571428572  0.0000000000000000 B
   0.5657142857142858  0.8857142857142857  0.0000000000000000 B
   0.4742857142857151  0.9142857142857141  0.0000000000000000 B
   0.3828571428571426  0.9428571428571431  0.0000000000000000 B
   0.2914285714285718  0.9714285714285715  0.0000000000000000 B
   0.1999999999999993  0.0000000000000000  0.0000000000000000 B
   0.1028571428571432  0.3428571428571425  0.0000000000000000 B
   0.1085714285714285  0.0285714285714285  0.0000000000000000 B
   0.9257142857142853  0.0857142857142854  0.0000000000000000 B
   0.8342857142857145  0.1142857142857139  0.0000000000000000 B
   0.7428571428571420  0.1428571428571432  0.0000000000000000 B
   0.6514285714285712  0.1714285714285717  0.0000000000000000 B
   0.5600000000000005  0.2000000000000002  0.0000000000000000 B
   0.4685714285714280  0.2285714285714286  0.0000000000000000 B
   0.3771428571428572  0.2571428571428571  0.0000000000000000 B
   0.2857142857142865  0.2857142857142856  0.0000000000000000 B
   0.0171428571428578  0.0571428571428569  0.0000000000000000 B
   0.1828571428571433  0.9428571428571431  0.0000000000000000 B
   0.0457142857142854  0.4857142857142858  0.0000000000000000 B
   0.2285714285714286  0.4285714285714284  0.0000000000000000 B
   0.8971428571428572  0.6571428571428571  0.0000000000000000 B
   0.8057142857142856  0.6857142857142857  0.0000000000000000 B
   0.7142857142857144  0.7142857142857142  0.0000000000000000 B
   0.6228571428571428  0.7428571428571429  0.0000000000000000 B
   0.5314285714285716  0.7714285714285714  0.0000000000000000 B
   0.4399999999999999  0.8000000000000000  0.0000000000000000 B
   0.3485714285714288  0.8285714285714285  0.0000000000000000 B
   0.2571428571428571  0.8571428571428572  0.0000000000000000 B
   0.9885714285714284  0.6285714285714286  0.0000000000000000 B
   0.1657142857142859  0.8857142857142857  0.0000000000000000 B
   0.9828571428571427  0.9428571428571429  0.0000000000000000 B
   0.8914285714285715  0.9714285714285714  0.0000000000000000 B
   0.7999999999999998  0.0000000000000000  0.0000000000000000 B
   0.7085714285714286  0.0285714285714285  0.0000000000000000 B
   0.6171428571428570  0.0571428571428572  0.0000000000000000 B
   0.5257142857142858  0.0857142857142856  0.0000000000000000 B
   0.4342857142857142  0.1142857142857143  0.0000000000000000 B
   0.3428571428571430  0.1428571428571428  0.0000000000000000 B
   0.0742857142857143  0.9142857142857143  0.0000000000000000 B
   0.2514285714285713  0.1714285714285715  0.0000000000000000 B
   0.0800000000000001  0.6000000000000000  0.0000000000000000 B
   0.2628571428571429  0.5428571428571428  0.0000000000000000 B
   0.9085714285714286  0.0285714285714286  0.0000000000000000 B
   0.8171428571428572  0.0571428571428571  0.0000000000000000 B
   0.7257142857142858  0.0857142857142857  0.0000000000000000 B
   0.6342857142857143  0.1142857142857143  0.0000000000000000 B
   0.5428571428571429  0.1428571428571428  0.0000000000000000 B
   0.4514285714285714  0.1714285714285714  0.0000000000000000 B
   0.3600000000000000  0.2000000000000000  0.0000000000000000 B
   0.2685714285714286  0.2285714285714286  0.0000000000000000 B
   0.1714285714285715  0.5714285714285714  0.0000000000000000 B
   0.1771428571428572  0.2571428571428571  0.0000000000000000 B
   0.9942857142857142  0.3142857142857143  0.0000000000000000 B
   0.9028571428571428  0.3428571428571429  0.0000000000000000 B
   0.8114285714285714  0.3714285714285714  0.0000000000000000 B
   0.7200000000000000  0.4000000000000000  0.0000000000000000 B
   0.6285714285714286  0.4285714285714286  0.0000000000000000 B
   0.5371428571428571  0.4571428571428571  0.0000000000000000 B
   0.4457142857142857  0.4857142857142857  0.0000000000000000 B
   0.3542857142857143  0.5142857142857142  0.0000000000000000 B
   0.0857142857142857  0.2857142857142857  0.0000000000000000 B
   0.1371428571428570  0.4571428571428573  0.0000000000000000 B
   0.1600000000000001  0.2000000000000000  0.0000000000000000 B
   0.9771428571428569  0.2571428571428571  0.0000000000000000 B
   0.8742857142857146  0.9142857142857141  0.0000000000000000 B
   0.7828571428571429  0.9428571428571428  0.0000000000000000 B
   0.6914285714285713  0.9714285714285715  0.0000000000000000 B
   0.5999999999999996  0.0000000000000000  0.0000000000000000 B
   0.5085714285714289  0.0285714285714285  0.0000000000000000 B
   0.4171428571428573  0.0571428571428569  0.0000000000000000 B
   0.3257142857142856  0.0857142857142859  0.0000000000000000 B
   0.2342857142857140  0.1142857142857143  0.0000000000000000 B
   0.9657142857142853  0.8857142857142859  0.0000000000000000 B
   0.1428571428571432  0.1428571428571428  0.0000000000000000 B
   0.9600000000000000  0.2000000000000002  0.0000000000000000 B
   0.8685714285714283  0.2285714285714286  0.0000000000000000 B
   0.7771428571428576  0.2571428571428571  0.0000000000000000 B
   0.6857142857142859  0.2857142857142856  0.0000000000000000 B
   0.5942857142857143  0.3142857142857141  0.0000000000000000 B
   0.5028571428571427  0.3428571428571430  0.0000000000000000 B
   0.4114285714285710  0.3714285714285714  0.0000000000000000 B
   0.3200000000000003  0.3999999999999999  0.0000000000000000 B
   0.0514285714285716  0.1714285714285713  0.0000000000000000 B
   0.0685714285714285  0.2285714285714286  0.0000000000000000 B
   0.0571428571428569  0.8571428571428572  0.0000000000000000 B
   0.2400000000000002  0.7999999999999998  0.0000000000000000 B
   0.8857142857142861  0.2857142857142856  0.0000000000000000 B
   0.7942857142857145  0.3142857142857143  0.0000000000000000 B
   0.7028571428571428  0.3428571428571430  0.0000000000000000 B
   0.6114285714285712  0.3714285714285714  0.0000000000000000 B
   0.5199999999999996  0.4000000000000001  0.0000000000000000 B
   0.4285714285714288  0.4285714285714284  0.0000000000000000 B
   0.3371428571428572  0.4571428571428571  0.0000000000000000 B
   0.2457142857142856  0.4857142857142858  0.0000000000000000 B
   0.1485714285714286  0.8285714285714285  0.0000000000000000 B
   0.1542857142857139  0.5142857142857145  0.0000000000000000 B
   0.9714285714285715  0.5714285714285714  0.0000000000000000 B
   0.8799999999999999  0.6000000000000001  0.0000000000000000 B
   0.7885714285714283  0.6285714285714286  0.0000000000000000 B
   0.6971428571428575  0.6571428571428570  0.0000000000000000 B
   0.6057142857142859  0.6857142857142857  0.0000000000000000 B
   0.5142857142857142  0.7142857142857144  0.0000000000000000 B
   0.4228571428571426  0.7428571428571429  0.0000000000000000 B
   0.3314285714285718  0.7714285714285714  0.0000000000000000 B
   0.0628571428571432  0.5428571428571427  0.0000000000000000 B
   0.0914285714285707  0.9714285714285715  0.0000000000000000 B
