B4
 1.000000
    -1.7000000000000004    2.9440000000000000    0.0000000000000000
    -1.7000000000000004   -2.9440000000000000    0.0000000000000000
     0.0000000000000000    0.0000000000000000   12.0000000000000053
B
4
Direct
   0.0000000000000000  0.0000000000000000  0.0000000000000000 B
   0.5000000000000000  0.0000000000000000  0.0000000000000000 B
   0.5000000000000000  0.5000000000000000  0.0000000000000000 B
   0.0000000000000000  0.5000000000000000  0.0000000000000000 B
