B133
 1.000000
    -6.8000000000000007   14.7224318639200007    0.0000000000000000
   -17.8499999999999943  -10.3057023047439884    0.0000000000000000
     0.0000000000000000    0.0000000000000000   10.8800000000000008
B
133
Direct
   0.0000000000000000  0.0000000000000000  0.0000000000000000 B
   0.1052631578947363  0.7218045112781954  0.0000000000000000 B
   0.9999999999999982  0.7142857142857142  0.0000000000000000 B
   0.8947368421052619  0.7067669172932330  0.0000000000000000 B
   0.7894736842105274  0.6992481203007519  0.0000000000000000 B
   0.6842105263157894  0.6917293233082706  0.0000000000000000 B
   0.5789473684210513  0.6842105263157894  0.0000000000000000 B
   0.4736842105263150  0.6766917293233082  0.0000000000000000 B
   0.3684210526315788  0.6691729323308271  0.0000000000000000 B
   0.2631578947368425  0.6616541353383458  0.0000000000000000 B
   0.1578947368421044  0.6541353383458646  0.0000000000000000 B
   0.0526315789473681  0.6466165413533834  0.0000000000000000 B
   0.9473684210526319  0.6390977443609023  0.0000000000000000 B
   0.8421052631578938  0.6315789473684210  0.0000000000000000 B
   0.7368421052631575  0.6240601503759398  0.0000000000000000 B
   0.6315789473684212  0.6165413533834586  0.0000000000000000 B
   0.5263157894736850  0.6090225563909775  0.0000000000000000 B
   0.4210526315789469  0.6015037593984962  0.0000000000000000 B
   0.3157894736842088  0.5939849624060149  0.0000000000000000 B
   0.2105263157894726  0.5864661654135338  0.0000000000000000 B
   0.1052631578947363  0.5789473684210527  0.0000000000000000 B
   0.0000000000000000  0.5714285714285714  0.0000000000000000 B
   0.8947368421052619  0.5639097744360901  0.0000000000000000 B
   0.7894736842105257  0.5563909774436090  0.0000000000000000 B
   0.6842105263157894  0.5488721804511278  0.0000000000000000 B
   0.5789473684210522  0.5413533834586466  0.0000000000000000 B
   0.4736842105263150  0.5338345864661653  0.0000000000000000 B
   0.3684210526315788  0.5263157894736842  0.0000000000000000 B
   0.2631578947368425  0.5187969924812030  0.0000000000000000 B
   0.1578947368421044  0.5112781954887218  0.0000000000000000 B
   0.2105263157894743  0.7293233082706767  0.0000000000000000 B
   0.3157894736842106  0.7368421052631579  0.0000000000000000 B
   0.4210526315789451  0.7443609022556390  0.0000000000000000 B
   0.5263157894736832  0.7518796992481203  0.0000000000000000 B
   0.6842105263157894  0.9774436090225563  0.0000000000000000 B
   0.5789473684210531  0.9699248120300752  0.0000000000000000 B
   0.4736842105263150  0.9624060150375939  0.0000000000000000 B
   0.3684210526315770  0.9548872180451127  0.0000000000000000 B
   0.2631578947368407  0.9473684210526315  0.0000000000000000 B
   0.1578947368421062  0.9398496240601504  0.0000000000000000 B
   0.0526315789473681  0.9323308270676691  0.0000000000000000 B
   0.9473684210526301  0.9248120300751879  0.0000000000000000 B
   0.8421052631578938  0.9172932330827067  0.0000000000000000 B
   0.7368421052631575  0.9097744360902256  0.0000000000000000 B
   0.6315789473684212  0.9022556390977443  0.0000000000000000 B
   0.5263157894736832  0.8947368421052631  0.0000000000000000 B
   0.4210526315789469  0.8872180451127819  0.0000000000000000 B
   0.3157894736842106  0.8796992481203008  0.0000000000000000 B
   0.0526315789473673  0.5037593984962405  0.0000000000000000 B
   0.2105263157894726  0.8721804511278195  0.0000000000000000 B
   0.0000000000000000  0.8571428571428571  0.0000000000000000 B
   0.8947368421052637  0.8496240601503759  0.0000000000000000 B
   0.7894736842105257  0.8421052631578947  0.0000000000000000 B
   0.6842105263157876  0.8345864661654134  0.0000000000000000 B
   0.5789473684210513  0.8270676691729323  0.0000000000000000 B
   0.4736842105263150  0.8195488721804511  0.0000000000000000 B
   0.3684210526315788  0.8120300751879699  0.0000000000000000 B
   0.2631578947368407  0.8045112781954886  0.0000000000000000 B
   0.1578947368421044  0.7969924812030075  0.0000000000000000 B
   0.0526315789473681  0.7894736842105263  0.0000000000000000 B
   0.9473684210526301  0.7819548872180451  0.0000000000000000 B
   0.8421052631578938  0.7744360902255638  0.0000000000000000 B
   0.7368421052631575  0.7669172932330827  0.0000000000000000 B
   0.6315789473684212  0.7593984962406015  0.0000000000000000 B
   0.1052631578947363  0.8646616541353382  0.0000000000000000 B
   0.7894736842105239  0.9849624060150375  0.0000000000000000 B
   0.9473684210526310  0.4962406015037594  0.0000000000000000 B
   0.7368421052631575  0.4812030075187970  0.0000000000000000 B
   0.0526315789473681  0.2180451127819549  0.0000000000000000 B
   0.9473684210526314  0.2105263157894737  0.0000000000000000 B
   0.8421052631578947  0.2030075187969925  0.0000000000000000 B
   0.7368421052631575  0.1954887218045113  0.0000000000000000 B
   0.6315789473684208  0.1879699248120301  0.0000000000000000 B
   0.5263157894736841  0.1804511278195489  0.0000000000000000 B
   0.4210526315789473  0.1729323308270677  0.0000000000000000 B
   0.3157894736842106  0.1654135338345865  0.0000000000000000 B
   0.2105263157894735  0.1578947368421053  0.0000000000000000 B
   0.1052631578947367  0.1503759398496241  0.0000000000000000 B
   0.0000000000000000  0.1428571428571428  0.0000000000000000 B
   0.8947368421052631  0.1353383458646616  0.0000000000000000 B
   0.7894736842105261  0.1278195488721804  0.0000000000000000 B
   0.6842105263157894  0.1203007518796992  0.0000000000000000 B
   0.5789473684210527  0.1127819548872180  0.0000000000000000 B
   0.4736842105263157  0.1052631578947368  0.0000000000000000 B
   0.3684210526315788  0.0977443609022556  0.0000000000000000 B
   0.2631578947368420  0.0902255639097744  0.0000000000000000 B
   0.1578947368421053  0.0827067669172932  0.0000000000000000 B
   0.0526315789473684  0.0751879699248120  0.0000000000000000 B
   0.9473684210526315  0.0676691729323308  0.0000000000000000 B
   0.8421052631578947  0.0601503759398496  0.0000000000000000 B
   0.7368421052631579  0.0526315789473684  0.0000000000000000 B
   0.6315789473684210  0.0451127819548872  0.0000000000000000 B
   0.5263157894736842  0.0375939849624060  0.0000000000000000 B
   0.4210526315789473  0.0300751879699248  0.0000000000000000 B
   0.3157894736842105  0.0225563909774436  0.0000000000000000 B
   0.2105263157894737  0.0150375939849624  0.0000000000000000 B
   0.1052631578947368  0.0075187969924812  0.0000000000000000 B
   0.1578947368421053  0.2255639097744361  0.0000000000000000 B
   0.2631578947368420  0.2330827067669173  0.0000000000000000 B
   0.3684210526315788  0.2406015037593985  0.0000000000000000 B
   0.4736842105263155  0.2481203007518797  0.0000000000000000 B
   0.6315789473684204  0.4736842105263158  0.0000000000000000 B
   0.5263157894736841  0.4661654135338346  0.0000000000000000 B
   0.4210526315789469  0.4586466165413534  0.0000000000000000 B
   0.3157894736842106  0.4511278195488722  0.0000000000000000 B
   0.2105263157894735  0.4436090225563910  0.0000000000000000 B
   0.1052631578947363  0.4360902255639098  0.0000000000000000 B
   0.0000000000000000  0.4285714285714285  0.0000000000000000 B
   0.8947368421052628  0.4210526315789473  0.0000000000000000 B
   0.7894736842105257  0.4135338345864661  0.0000000000000000 B
   0.6842105263157894  0.4060150375939849  0.0000000000000000 B
   0.5789473684210522  0.3984962406015037  0.0000000000000000 B
   0.4736842105263150  0.3909774436090225  0.0000000000000000 B
   0.3684210526315788  0.3834586466165413  0.0000000000000000 B
   0.2631578947368416  0.3759398496240601  0.0000000000000000 B
   0.8421052631578947  0.4887218045112782  0.0000000000000000 B
   0.1578947368421053  0.3684210526315789  0.0000000000000000 B
   0.9473684210526310  0.3533834586466165  0.0000000000000000 B
   0.8421052631578947  0.3458646616541353  0.0000000000000000 B
   0.7368421052631575  0.3383458646616541  0.0000000000000000 B
   0.6315789473684212  0.3308270676691729  0.0000000000000000 B
   0.5263157894736841  0.3233082706766917  0.0000000000000000 B
   0.4210526315789469  0.3157894736842105  0.0000000000000000 B
   0.3157894736842106  0.3082706766917293  0.0000000000000000 B
   0.2105263157894735  0.3007518796992481  0.0000000000000000 B
   0.1052631578947363  0.2932330827067669  0.0000000000000000 B
   0.0000000000000000  0.2857142857142857  0.0000000000000000 B
   0.8947368421052628  0.2781954887218045  0.0000000000000000 B
   0.7894736842105261  0.2706766917293233  0.0000000000000000 B
   0.6842105263157894  0.2631578947368421  0.0000000000000000 B
   0.5789473684210522  0.2556390977443609  0.0000000000000000 B
   0.0526315789473681  0.3609022556390977  0.0000000000000000 B
   0.8947368421052619  0.9924812030075187  0.0000000000000000 B
