B138
 1.000000
     4.2500000000000000   13.2501886775280013    0.0000000000000000
   -24.6500000000000057    4.4167295591760194    0.0000000000000000
     0.0000000000000000    0.0000000000000000   10.8800000000000008
B
138
Direct
   0.0000000000000000  0.0000000000000000  0.0000000000000000 B
   0.4202898550724434  0.0724637681159317  0.0000000000000000 B
   0.3260869565217188  0.0217391304347725  0.0000000000000000 B
   0.2318840579709942  0.9710144927536133  0.0000000000000000 B
   0.1376811594202696  0.9202898550724541  0.0000000000000000 B
   0.0434782608695450  0.8695652173912940  0.0000000000000000 B
   0.9492753623188221  0.8188405797101357  0.0000000000000000 B
   0.8550724637680975  0.7681159420289756  0.0000000000000000 B
   0.7608695652173729  0.7173913043478164  0.0000000000000000 B
   0.6666666666666465  0.6666666666666572  0.0000000000000000 B
   0.5724637681159237  0.6159420289854980  0.0000000000000000 B
   0.4782608695651991  0.5652173913043388  0.0000000000000000 B
   0.3840579710144745  0.5144927536231787  0.0000000000000000 B
   0.2898550724637499  0.4637681159420204  0.0000000000000000 B
   0.1956521739130253  0.4130434782608612  0.0000000000000000 B
   0.5144927536231680  0.1231884057970909  0.0000000000000000 B
   0.1014492753623006  0.3623188405797011  0.0000000000000000 B
   0.9130434782608532  0.2608695652173827  0.0000000000000000 B
   0.8188405797101277  0.2101449275362235  0.0000000000000000 B
   0.7246376811594031  0.1594202898550634  0.0000000000000000 B
   0.6304347826086794  0.1086956521739051  0.0000000000000000 B
   0.5362318840579547  0.0579710144927459  0.0000000000000000 B
   0.4420289855072301  0.0072463768115858  0.0000000000000000 B
   0.3478260869565055  0.9565217391304266  0.0000000000000000 B
   0.2536231884057818  0.9057971014492678  0.0000000000000000 B
   0.1594202898550572  0.8550724637681082  0.0000000000000000 B
   0.0652173913043317  0.8043478260869485  0.0000000000000000 B
   0.9710144927536088  0.7536231884057898  0.0000000000000000 B
   0.8768115942028833  0.7028985507246301  0.0000000000000000 B
   0.7826086956521587  0.6521739130434709  0.0000000000000000 B
   0.6884057971014341  0.6014492753623113  0.0000000000000000 B
   0.0072463768115760  0.3115942028985419  0.0000000000000000 B
   0.6086956521738927  0.1739130434782510  0.0000000000000000 B
   0.7028985507246155  0.2246376811594093  0.0000000000000000 B
   0.7971014492753419  0.2753623188405694  0.0000000000000000 B
   0.7173913043477977  0.8478260869565082  0.0000000000000000 B
   0.6231884057970731  0.7971014492753481  0.0000000000000000 B
   0.5289855072463503  0.7463768115941898  0.0000000000000000 B
   0.4347826086956257  0.6956521739130297  0.0000000000000000 B
   0.3405797101449011  0.6449275362318705  0.0000000000000000 B
   0.2463768115941765  0.5942028985507113  0.0000000000000000 B
   0.1521739130434518  0.5434782608695521  0.0000000000000000 B
   0.0579710144927272  0.4927536231883929  0.0000000000000000 B
   0.9637681159420026  0.4420289855072328  0.0000000000000000 B
   0.8695652173912798  0.3913043478260745  0.0000000000000000 B
   0.7753623188405552  0.3405797101449153  0.0000000000000000 B
   0.6811594202898288  0.2898550724637552  0.0000000000000000 B
   0.5869565217391042  0.2391304347825960  0.0000000000000000 B
   0.4927536231883813  0.1884057971014368  0.0000000000000000 B
   0.3985507246376567  0.1376811594202776  0.0000000000000000 B
   0.3043478260869321  0.0869565217391175  0.0000000000000000 B
   0.2101449275362075  0.0362318840579592  0.0000000000000000 B
   0.8913043478260665  0.3260869565217286  0.0000000000000000 B
   0.9855072463767893  0.3768115942028878  0.0000000000000000 B
   0.0797101449275139  0.4275362318840470  0.0000000000000000 B
   0.1739130434782385  0.4782608695652062  0.0000000000000000 B
   0.2681159420289632  0.5289855072463654  0.0000000000000000 B
   0.3623188405796878  0.5797101449275246  0.0000000000000000 B
   0.5942028985507104  0.5507246376811525  0.0000000000000000 B
   0.4565217391304124  0.6304347826086847  0.0000000000000000 B
   0.6449275362318598  0.7318840579710031  0.0000000000000000 B
   0.7391304347825844  0.7826086956521623  0.0000000000000000 B
   0.8333333333333108  0.8333333333333215  0.0000000000000000 B
   0.9275362318840337  0.8840579710144807  0.0000000000000000 B
   0.0217391304347583  0.9347826086956399  0.0000000000000000 B
   0.1159420289854829  0.9855072463768000  0.0000000000000000 B
   0.5507246376811370  0.6811594202898439  0.0000000000000000 B
   0.4999999999999858  0.4999999999999929  0.0000000000000000 B
   0.4057971014492621  0.4492753623188337  0.0000000000000000 B
   0.3115942028985366  0.3985507246376740  0.0000000000000000 B
   0.9202898550724572  0.5724637681159388  0.0000000000000000 B
   0.8260869565217330  0.5217391304347794  0.0000000000000000 B
   0.7318840579710084  0.4710144927536202  0.0000000000000000 B
   0.6376811594202842  0.4202898550724610  0.0000000000000000 B
   0.5434782608695596  0.3695652173913015  0.0000000000000000 B
   0.4492753623188355  0.3188405797101423  0.0000000000000000 B
   0.3550724637681109  0.2681159420289829  0.0000000000000000 B
   0.2608695652173862  0.2173913043478235  0.0000000000000000 B
   0.1666666666666616  0.1666666666666643  0.0000000000000000 B
   0.0724637681159375  0.1159420289855051  0.0000000000000000 B
   0.9782608695652133  0.0652173913043457  0.0000000000000000 B
   0.8840579710144887  0.0144927536231865  0.0000000000000000 B
   0.7898550724637643  0.9637681159420270  0.0000000000000000 B
   0.6956521739130397  0.9130434782608677  0.0000000000000000 B
   0.6014492753623155  0.8623188405797084  0.0000000000000000 B
   0.5072463768115909  0.8115942028985491  0.0000000000000000 B
   0.4130434782608665  0.7608695652173897  0.0000000000000000 B
   0.0942028985507244  0.0507246376811593  0.0000000000000000 B
   0.1884057971014489  0.1014492753623186  0.0000000000000000 B
   0.2826086956521733  0.1521739130434779  0.0000000000000000 B
   0.3768115942028977  0.2028985507246373  0.0000000000000000 B
   0.4710144927536222  0.2536231884057966  0.0000000000000000 B
   0.5652173913043466  0.3043478260869559  0.0000000000000000 B
   0.0144927536231818  0.6231884057970982  0.0000000000000000 B
   0.6594202898550711  0.3550724637681152  0.0000000000000000 B
   0.8478260869565198  0.4565217391304339  0.0000000000000000 B
   0.9420289855072443  0.5072463768115932  0.0000000000000000 B
   0.0362318840579687  0.5579710144927525  0.0000000000000000 B
   0.1304347826086931  0.6086956521739117  0.0000000000000000 B
   0.2246376811594177  0.6594202898550712  0.0000000000000000 B
   0.3188405797101421  0.7101449275362305  0.0000000000000000 B
   0.7536231884057955  0.4057971014492746  0.0000000000000000 B
   0.8115942028985241  0.8985507246376674  0.0000000000000000 B
   0.1086956521739064  0.6739130434782574  0.0000000000000000 B
   0.2971014492753552  0.7753623188405763  0.0000000000000000 B
   0.2173913043478128  0.3478260869565148  0.0000000000000000 B
   0.1231884057970882  0.2971014492753556  0.0000000000000000 B
   0.0289855072463636  0.2463768115941964  0.0000000000000000 B
   0.9347826086956399  0.1956521739130372  0.0000000000000000 B
   0.8405797101449144  0.1449275362318776  0.0000000000000000 B
   0.7463768115941907  0.0942028985507184  0.0000000000000000 B
   0.6521739130434661  0.0434782608695587  0.0000000000000000 B
   0.5579710144927414  0.9927536231884000  0.0000000000000000 B
   0.4637681159420168  0.9420289855072403  0.0000000000000000 B
   0.3695652173912922  0.8913043478260811  0.0000000000000000 B
   0.2753623188405685  0.8405797101449219  0.0000000000000000 B
   0.1811594202898439  0.7898550724637623  0.0000000000000000 B
   0.0869565217391193  0.7391304347826031  0.0000000000000000 B
   0.9927536231883947  0.6884057971014439  0.0000000000000000 B
   0.8985507246376709  0.6376811594202847  0.0000000000000000 B
   0.8043478260869463  0.5869565217391255  0.0000000000000000 B
   0.7101449275362217  0.5362318840579658  0.0000000000000000 B
   0.3913043478260794  0.8260869565217355  0.0000000000000000 B
   0.4855072463768044  0.8768115942028949  0.0000000000000000 B
   0.5797101449275286  0.9275362318840541  0.0000000000000000 B
   0.6739130434782528  0.9782608695652133  0.0000000000000000 B
   0.7681159420289774  0.0289855072463729  0.0000000000000000 B
   0.8623188405797015  0.0797101449275317  0.0000000000000000 B
   0.2028985507246310  0.7246376811594168  0.0000000000000000 B
   0.9565217391304266  0.1304347826086913  0.0000000000000000 B
   0.1449275362318749  0.2318840579710102  0.0000000000000000 B
   0.2391304347825995  0.2826086956521694  0.0000000000000000 B
   0.3333333333333233  0.3333333333333286  0.0000000000000000 B
   0.4275362318840488  0.3840579710144878  0.0000000000000000 B
   0.5217391304347725  0.4347826086956470  0.0000000000000000 B
   0.6159420289854971  0.4855072463768066  0.0000000000000000 B
   0.0507246376811503  0.1811594202898505  0.0000000000000000 B
   0.9057971014492470  0.9492753623188266  0.0000000000000000 B
