B138
 1.000000
    16.1500000000000057   -7.3612159319600039    0.0000000000000000
     1.7000000000000028   20.6114046094880052    0.0000000000000000
     0.0000000000000000    0.0000000000000000   10.8800000000000008
B
138
Direct
   0.0000000000000000  0.0000000000000000  0.0000000000000000 B
   0.2028985507246377  0.0724637681159424  0.0000000000000000 B
   0.2608695652173916  0.0217391304347823  0.0000000000000000 B
   0.3188405797101446  0.9710144927536231  0.0000000000000000 B
   0.3768115942028984  0.9202898550724639  0.0000000000000000 B
   0.4347826086956523  0.8695652173913047  0.0000000000000000 B
   0.4927536231884053  0.8188405797101455  0.0000000000000000 B
   0.5507246376811592  0.7681159420289854  0.0000000000000000 B
   0.6086956521739131  0.7173913043478262  0.0000000000000000 B
   0.6666666666666670  0.6666666666666661  0.0000000000000000 B
   0.7246376811594200  0.6159420289855078  0.0000000000000000 B
   0.7826086956521738  0.5652173913043477  0.0000000000000000 B
   0.8405797101449277  0.5144927536231885  0.0000000000000000 B
   0.8985507246376807  0.4637681159420293  0.0000000000000000 B
   0.9565217391304346  0.4130434782608701  0.0000000000000000 B
   0.1449275362318838  0.1231884057971016  0.0000000000000000 B
   0.0144927536231885  0.3623188405797100  0.0000000000000000 B
   0.1304347826086953  0.2608695652173916  0.0000000000000000 B
   0.1884057971014492  0.2101449275362324  0.0000000000000000 B
   0.2463768115942031  0.1594202898550723  0.0000000000000000 B
   0.3043478260869561  0.1086956521739131  0.0000000000000000 B
   0.3623188405797100  0.0579710144927539  0.0000000000000000 B
   0.4202898550724639  0.0072463768115938  0.0000000000000000 B
   0.4782608695652177  0.9565217391304346  0.0000000000000000 B
   0.5362318840579707  0.9057971014492754  0.0000000000000000 B
   0.5942028985507246  0.8550724637681162  0.0000000000000000 B
   0.6521739130434785  0.8043478260869561  0.0000000000000000 B
   0.7101449275362315  0.7536231884057973  0.0000000000000000 B
   0.7681159420289854  0.7028985507246377  0.0000000000000000 B
   0.8260869565217392  0.6521739130434780  0.0000000000000000 B
   0.8840579710144931  0.6014492753623184  0.0000000000000000 B
   0.0724637681159424  0.3115942028985508  0.0000000000000000 B
   0.0869565217391299  0.1739130434782616  0.0000000000000000 B
   0.0289855072463769  0.2246376811594200  0.0000000000000000 B
   0.9710144927536231  0.2753623188405800  0.0000000000000000 B
   0.1739130434782608  0.8478260869565215  0.0000000000000000 B
   0.2318840579710146  0.7971014492753623  0.0000000000000000 B
   0.2898550724637676  0.7463768115942031  0.0000000000000000 B
   0.3478260869565215  0.6956521739130439  0.0000000000000000 B
   0.4057971014492754  0.6449275362318838  0.0000000000000000 B
   0.4637681159420293  0.5942028985507246  0.0000000000000000 B
   0.5217391304347823  0.5434782608695654  0.0000000000000000 B
   0.5797101449275361  0.4927536231884062  0.0000000000000000 B
   0.6376811594202900  0.4420289855072461  0.0000000000000000 B
   0.6956521739130430  0.3913043478260878  0.0000000000000000 B
   0.7536231884057969  0.3405797101449277  0.0000000000000000 B
   0.8115942028985508  0.2898550724637676  0.0000000000000000 B
   0.8695652173913047  0.2391304347826084  0.0000000000000000 B
   0.9275362318840576  0.1884057971014492  0.0000000000000000 B
   0.9855072463768115  0.1376811594202900  0.0000000000000000 B
   0.0434782608695654  0.0869565217391299  0.0000000000000000 B
   0.1014492753623184  0.0362318840579716  0.0000000000000000 B
   0.9130434782608692  0.3260869565217392  0.0000000000000000 B
   0.8550724637681162  0.3768115942028984  0.0000000000000000 B
   0.7971014492753623  0.4275362318840576  0.0000000000000000 B
   0.7391304347826084  0.4782608695652177  0.0000000000000000 B
   0.6811594202898554  0.5289855072463769  0.0000000000000000 B
   0.6231884057971016  0.5797101449275361  0.0000000000000000 B
   0.9420289855072461  0.5507246376811596  0.0000000000000000 B
   0.5652173913043477  0.6304347826086953  0.0000000000000000 B
   0.4492753623188408  0.7318840579710146  0.0000000000000000 B
   0.3913043478260869  0.7826086956521738  0.0000000000000000 B
   0.3333333333333330  0.8333333333333339  0.0000000000000000 B
   0.2753623188405800  0.8840579710144922  0.0000000000000000 B
   0.2173913043478262  0.9347826086956523  0.0000000000000000 B
   0.1594202898550723  0.9855072463768115  0.0000000000000000 B
   0.5072463768115938  0.6811594202898554  0.0000000000000000 B
   0.0000000000000000  0.5000000000000000  0.0000000000000000 B
   0.0579710144927534  0.4492753623188408  0.0000000000000000 B
   0.1159420289855073  0.3985507246376812  0.0000000000000000 B
   0.2028985507246377  0.5724637681159419  0.0000000000000000 B
   0.2608695652173914  0.5217391304347825  0.0000000000000000 B
   0.3188405797101450  0.4710144927536231  0.0000000000000000 B
   0.3768115942028984  0.4202898550724639  0.0000000000000000 B
   0.4347826086956521  0.3695652173913044  0.0000000000000000 B
   0.4927536231884058  0.3188405797101450  0.0000000000000000 B
   0.5507246376811594  0.2681159420289856  0.0000000000000000 B
   0.6086956521739131  0.2173913043478262  0.0000000000000000 B
   0.6666666666666667  0.1666666666666665  0.0000000000000000 B
   0.7246376811594202  0.1159420289855073  0.0000000000000000 B
   0.7826086956521738  0.0652173913043479  0.0000000000000000 B
   0.8405797101449275  0.0144927536231885  0.0000000000000000 B
   0.8985507246376812  0.9637681159420290  0.0000000000000000 B
   0.9565217391304348  0.9130434782608695  0.0000000000000000 B
   0.0144927536231884  0.8623188405797102  0.0000000000000000 B
   0.0724637681159420  0.8115942028985508  0.0000000000000000 B
   0.1304347826086957  0.7608695652173912  0.0000000000000000 B
   0.9420289855072463  0.0507246376811594  0.0000000000000000 B
   0.8840579710144928  0.1014492753623188  0.0000000000000000 B
   0.8260869565217391  0.1521739130434783  0.0000000000000000 B
   0.7681159420289855  0.2028985507246377  0.0000000000000000 B
   0.7101449275362319  0.2536231884057971  0.0000000000000000 B
   0.6521739130434783  0.3043478260869565  0.0000000000000000 B
   0.1449275362318840  0.6231884057971016  0.0000000000000000 B
   0.5942028985507246  0.3550724637681160  0.0000000000000000 B
   0.4782608695652174  0.4565217391304348  0.0000000000000000 B
   0.4202898550724637  0.5072463768115942  0.0000000000000000 B
   0.3623188405797101  0.5579710144927537  0.0000000000000000 B
   0.3043478260869565  0.6086956521739131  0.0000000000000000 B
   0.2463768115942029  0.6594202898550725  0.0000000000000000 B
   0.1884057971014492  0.7101449275362319  0.0000000000000000 B
   0.5362318840579710  0.4057971014492754  0.0000000000000000 B
   0.1159420289855069  0.8985507246376816  0.0000000000000000 B
   0.0869565217391304  0.6739130434782610  0.0000000000000000 B
   0.9710144927536231  0.7753623188405798  0.0000000000000000 B
   0.1739130434782608  0.3478260869565220  0.0000000000000000 B
   0.2318840579710146  0.2971014492753623  0.0000000000000000 B
   0.2898550724637681  0.2463768115942031  0.0000000000000000 B
   0.3478260869565215  0.1956521739130439  0.0000000000000000 B
   0.4057971014492754  0.1449275362318838  0.0000000000000000 B
   0.4637681159420288  0.0942028985507246  0.0000000000000000 B
   0.5217391304347827  0.0434782608695650  0.0000000000000000 B
   0.5797101449275361  0.9927536231884058  0.0000000000000000 B
   0.6376811594202900  0.9420289855072461  0.0000000000000000 B
   0.6956521739130435  0.8913043478260869  0.0000000000000000 B
   0.7536231884057969  0.8405797101449277  0.0000000000000000 B
   0.8115942028985508  0.7898550724637681  0.0000000000000000 B
   0.8695652173913042  0.7391304347826089  0.0000000000000000 B
   0.9275362318840581  0.6884057971014492  0.0000000000000000 B
   0.9855072463768115  0.6376811594202900  0.0000000000000000 B
   0.0434782608695650  0.5869565217391308  0.0000000000000000 B
   0.1014492753623188  0.5362318840579712  0.0000000000000000 B
   0.9130434782608696  0.8260869565217390  0.0000000000000000 B
   0.8550724637681157  0.8768115942028987  0.0000000000000000 B
   0.7971014492753623  0.9275362318840581  0.0000000000000000 B
   0.7391304347826089  0.9782608695652173  0.0000000000000000 B
   0.6811594202898550  0.0289855072463769  0.0000000000000000 B
   0.6231884057971016  0.0797101449275361  0.0000000000000000 B
   0.0289855072463767  0.7246376811594204  0.0000000000000000 B
   0.5652173913043477  0.1304347826086958  0.0000000000000000 B
   0.4492753623188404  0.2318840579710146  0.0000000000000000 B
   0.3913043478260869  0.2826086956521738  0.0000000000000000 B
   0.3333333333333335  0.3333333333333330  0.0000000000000000 B
   0.2753623188405796  0.3840579710144927  0.0000000000000000 B
   0.2173913043478262  0.4347826086956523  0.0000000000000000 B
   0.1594202898550723  0.4855072463768115  0.0000000000000000 B
   0.5072463768115942  0.1811594202898550  0.0000000000000000 B
   0.0579710144927539  0.9492753623188399  0.0000000000000000 B
