B126
 1.000000
    11.0500000000000043   10.3057023047440168    0.0000000000000000
   -19.5500000000000043   10.3057023047439884    0.0000000000000000
     0.0000000000000000    0.0000000000000000   10.8800000000000008
B
126
Direct
   0.0000000000000000  0.0000000000000000  0.0000000000000000 B
   0.2777777777777781  0.7222222222222228  0.0000000000000000 B
   0.2142857142857149  0.6428571428571432  0.0000000000000000 B
   0.1507936507936511  0.5634920634920637  0.0000000000000000 B
   0.0873015873015879  0.4841269841269846  0.0000000000000000 B
   0.0238095238095242  0.4047619047619051  0.0000000000000000 B
   0.9603174603174607  0.3253968253968256  0.0000000000000000 B
   0.8968253968253972  0.2460317460317465  0.0000000000000000 B
   0.8333333333333337  0.1666666666666670  0.0000000000000000 B
   0.7698412698412702  0.0873015873015874  0.0000000000000000 B
   0.7063492063492067  0.0079365079365084  0.0000000000000000 B
   0.6428571428571432  0.9285714285714288  0.0000000000000000 B
   0.5793650793650797  0.8492063492063495  0.0000000000000000 B
   0.5158730158730163  0.7698412698412702  0.0000000000000000 B
   0.4523809523809526  0.6904761904761907  0.0000000000000000 B
   0.3888888888888891  0.6111111111111114  0.0000000000000000 B
   0.3253968253968256  0.5317460317460321  0.0000000000000000 B
   0.2619047619047621  0.4523809523809526  0.0000000000000000 B
   0.1984126984126986  0.3730158730158732  0.0000000000000000 B
   0.1349206349206351  0.2936507936507939  0.0000000000000000 B
   0.0714285714285716  0.2142857142857144  0.0000000000000000 B
   0.0079365079365081  0.1349206349206351  0.0000000000000000 B
   0.9444444444444446  0.0555555555555558  0.0000000000000000 B
   0.8809523809523812  0.9761904761904764  0.0000000000000000 B
   0.8174603174603177  0.8968253968253970  0.0000000000000000 B
   0.7539682539682542  0.8174603174603177  0.0000000000000000 B
   0.6904761904761906  0.7380952380952382  0.0000000000000000 B
   0.6269841269841271  0.6587301587301588  0.0000000000000000 B
   0.3412698412698418  0.8015873015873018  0.0000000000000000 B
   0.4047619047619051  0.8809523809523814  0.0000000000000000 B
   0.4682539682539688  0.9603174603174609  0.0000000000000000 B
   0.5317460317460321  0.0396825396825400  0.0000000000000000 B
   0.3095238095238102  0.2619047619047628  0.0000000000000000 B
   0.2460317460317469  0.1825396825396837  0.0000000000000000 B
   0.1825396825396837  0.1031746031746037  0.0000000000000000 B
   0.1190476190476195  0.0238095238095246  0.0000000000000000 B
   0.0555555555555562  0.9444444444444455  0.0000000000000000 B
   0.9920634920634930  0.8650793650793656  0.0000000000000000 B
   0.9285714285714293  0.7857142857142865  0.0000000000000000 B
   0.8650793650793656  0.7063492063492065  0.0000000000000000 B
   0.8015873015873023  0.6269841269841274  0.0000000000000000 B
   0.7380952380952390  0.5476190476190483  0.0000000000000000 B
   0.6746031746031753  0.4682539682539693  0.0000000000000000 B
   0.6111111111111116  0.3888888888888893  0.0000000000000000 B
   0.5476190476190483  0.3095238095238102  0.0000000000000000 B
   0.5634920634920636  0.5793650793650795  0.0000000000000000 B
   0.4841269841269851  0.2301587301587311  0.0000000000000000 B
   0.3571428571428577  0.0714285714285721  0.0000000000000000 B
   0.2936507936507944  0.9920634920634925  0.0000000000000000 B
   0.2301587301587311  0.9126984126984135  0.0000000000000000 B
   0.1666666666666674  0.8333333333333339  0.0000000000000000 B
   0.1031746031746037  0.7539682539682544  0.0000000000000000 B
   0.0396825396825404  0.6746031746031753  0.0000000000000000 B
   0.9761904761904767  0.5952380952380958  0.0000000000000000 B
   0.9126984126984130  0.5158730158730163  0.0000000000000000 B
   0.8492063492063493  0.4365079365079367  0.0000000000000000 B
   0.7857142857142860  0.3571428571428577  0.0000000000000000 B
   0.7222222222222228  0.2777777777777786  0.0000000000000000 B
   0.6587301587301591  0.1984126984126990  0.0000000000000000 B
   0.5952380952380953  0.1190476190476191  0.0000000000000000 B
   0.4206349206349214  0.1507936507936511  0.0000000000000000 B
   0.5000000000000001  0.5000000000000001  0.0000000000000000 B
   0.9365079365079372  0.9206349206349209  0.0000000000000000 B
   0.8730158730158735  0.8412698412698418  0.0000000000000000 B
   0.7777777777777781  0.2222222222222223  0.0000000000000000 B
   0.7142857142857146  0.1428571428571432  0.0000000000000000 B
   0.6507936507936511  0.0634920634920637  0.0000000000000000 B
   0.5873015873015877  0.9841269841269844  0.0000000000000000 B
   0.5238095238095242  0.9047619047619051  0.0000000000000000 B
   0.4603174603174605  0.8253968253968256  0.0000000000000000 B
   0.3968253968253970  0.7460317460317463  0.0000000000000000 B
   0.3333333333333335  0.6666666666666670  0.0000000000000000 B
   0.2698412698412700  0.5873015873015874  0.0000000000000000 B
   0.2063492063492065  0.5079365079365081  0.0000000000000000 B
   0.1428571428571430  0.4285714285714288  0.0000000000000000 B
   0.0793650793650795  0.3492063492063493  0.0000000000000000 B
   0.0158730158730160  0.2698412698412700  0.0000000000000000 B
   0.8412698412698416  0.3015873015873018  0.0000000000000000 B
   0.9523809523809526  0.1904761904761907  0.0000000000000000 B
   0.8253968253968256  0.0317460317460319  0.0000000000000000 B
   0.7619047619047621  0.9523809523809526  0.0000000000000000 B
   0.6984126984126985  0.8730158730158731  0.0000000000000000 B
   0.6349206349206350  0.7936507936507937  0.0000000000000000 B
   0.5714285714285715  0.7142857142857144  0.0000000000000000 B
   0.5079365079365080  0.6349206349206350  0.0000000000000000 B
   0.4444444444444445  0.5555555555555556  0.0000000000000000 B
   0.3809523809523810  0.4761904761904763  0.0000000000000000 B
   0.3174603174603175  0.3968253968253969  0.0000000000000000 B
   0.2539682539682540  0.3174603174603175  0.0000000000000000 B
   0.1904761904761905  0.2380952380952381  0.0000000000000000 B
   0.1269841269841270  0.1587301587301587  0.0000000000000000 B
   0.0634920634920635  0.0793650793650794  0.0000000000000000 B
   0.8888888888888891  0.1111111111111112  0.0000000000000000 B
   0.3730158730158735  0.3412698412698418  0.0000000000000000 B
   0.9047619047619051  0.3809523809523814  0.0000000000000000 B
   0.0317460317460321  0.5396825396825400  0.0000000000000000 B
   0.8095238095238102  0.7619047619047628  0.0000000000000000 B
   0.7460317460317469  0.6825396825396837  0.0000000000000000 B
   0.6825396825396832  0.6031746031746037  0.0000000000000000 B
   0.6190476190476195  0.5238095238095237  0.0000000000000000 B
   0.5555555555555562  0.4444444444444446  0.0000000000000000 B
   0.4920634920634930  0.3650793650793656  0.0000000000000000 B
   0.4285714285714293  0.2857142857142865  0.0000000000000000 B
   0.3650793650793656  0.2063492063492065  0.0000000000000000 B
   0.3015873015873023  0.1269841269841274  0.0000000000000000 B
   0.2380952380952390  0.0476190476190483  0.0000000000000000 B
   0.1746031746031753  0.9682539682539688  0.0000000000000000 B
   0.1111111111111116  0.8888888888888893  0.0000000000000000 B
   0.0476190476190483  0.8095238095238102  0.0000000000000000 B
   0.9682539682539686  0.4603174603174605  0.0000000000000000 B
   0.9841269841269846  0.7301587301587307  0.0000000000000000 B
   0.8571428571428572  0.5714285714285716  0.0000000000000000 B
   0.7936507936507939  0.4920634920634925  0.0000000000000000 B
   0.7301587301587307  0.4126984126984135  0.0000000000000000 B
   0.6666666666666670  0.3333333333333339  0.0000000000000000 B
   0.6031746031746033  0.2539682539682540  0.0000000000000000 B
   0.5396825396825400  0.1746031746031749  0.0000000000000000 B
   0.4761904761904767  0.0952380952380958  0.0000000000000000 B
   0.4126984126984130  0.0158730158730163  0.0000000000000000 B
   0.3492063492063493  0.9365079365079367  0.0000000000000000 B
   0.2857142857142860  0.8571428571428577  0.0000000000000000 B
   0.2222222222222228  0.7777777777777786  0.0000000000000000 B
   0.1587301587301591  0.6984126984126986  0.0000000000000000 B
   0.0952380952380953  0.6190476190476191  0.0000000000000000 B
   0.9206349206349209  0.6507936507936511  0.0000000000000000 B
   0.4365079365079376  0.4206349206349209  0.0000000000000000 B
