B6
 1.000000
     3.4000000000000012    0.0000000000000000    0.0000000000000000
    -0.8500000000000002    4.4160000000000004    0.0000000000000000
     0.0000000000000000    0.0000000000000000   12.0000000000000053
B
6
Direct
   0.0000000000000000  0.0000000000000000  0.0000000000000000 B
   0.8333333333333334  0.3333333333333333  0.0000000000000000 B
   0.6666666666666667  0.6666666666666666  0.0000000000000000 B
   0.5000000000000000  0.0000000000000000  0.0000000000000000 B
   0.3333333333333334  0.3333333333333333  0.0000000000000000 B
   0.1666666666666667  0.6666666666666665  0.0000000000000000 B
