B252
 1.000000
   -10.2000000000000171    8.8334591183519819   -0.0000000000000000
    34.0000000000001705   32.3893501006242559   -0.0000000000000000
    -0.0000000000000000   -0.0000000000000000  -10.8800000000000008
B
252
Direct
   0.0000000000000000  0.0000000000000000  0.0000000000000000 B
   0.3174603174603021  0.0952380952380936  0.0000000000000000 B
   0.1944444444444287  0.0833333333333317  0.0000000000000000 B
   0.0714285714285552  0.0714285714285698  0.0000000000000000 B
   0.9484126984126817  0.0595238095238080  0.0000000000000000 B
   0.8253968253968083  0.0476190476190461  0.0000000000000000 B
   0.7023809523809348  0.0357142857142840  0.0000000000000000 B
   0.5793650793650613  0.0238095238095222  0.0000000000000000 B
   0.4563492063491879  0.0119047619047603  0.0000000000000000 B
   0.3333333333333144  0.9999999999999982  0.0000000000000000 B
   0.2103174603174445  0.9880952380952364  0.0000000000000000 B
   0.0873015873015710  0.9761904761904745  0.0000000000000000 B
   0.9642857142856975  0.9642857142857126  0.0000000000000000 B
   0.8412698412698205  0.9523809523809503  0.0000000000000000 B
   0.7182539682539471  0.9404761904761885  0.0000000000000000 B
   0.5952380952380771  0.9285714285714266  0.0000000000000000 B
   0.4722222222222037  0.9166666666666647  0.0000000000000000 B
   0.3492063492063302  0.9047619047619029  0.0000000000000000 B
   0.2261904761904567  0.8928571428571410  0.0000000000000000 B
   0.1031746031745868  0.8809523809523792  0.0000000000000000 B
   0.9801587301587134  0.8690476190476173  0.0000000000000000 B
   0.8571428571428399  0.8571428571428554  0.0000000000000000 B
   0.7341269841269629  0.8452380952380931  0.0000000000000000 B
   0.6111111111110894  0.8333333333333313  0.0000000000000000 B
   0.4880952380952195  0.8214285714285694  0.0000000000000000 B
   0.3650793650793460  0.8095238095238075  0.0000000000000000 B
   0.2420634920634726  0.7976190476190457  0.0000000000000000 B
   0.1190476190475991  0.7857142857142838  0.0000000000000000 B
   0.4404761904761720  0.1071428571428554  0.0000000000000000 B
   0.5634920634920455  0.1190476190476173  0.0000000000000000 B
   0.6865079365079190  0.1309523809523794  0.0000000000000000 B
   0.8095238095237924  0.1428571428571412  0.0000000000000000 B
   0.2539682539682406  0.4761904761904749  0.0000000000000000 B
   0.1309523809523672  0.4642857142857131  0.0000000000000000 B
   0.0079365079364955  0.4523809523809512  0.0000000000000000 B
   0.8849206349206220  0.4404761904761894  0.0000000000000000 B
   0.7619047619047485  0.4285714285714275  0.0000000000000000 B
   0.6388888888888751  0.4166666666666652  0.0000000000000000 B
   0.5158730158730016  0.4047619047619033  0.0000000000000000 B
   0.3928571428571281  0.3928571428571415  0.0000000000000000 B
   0.2698412698412547  0.3809523809523796  0.0000000000000000 B
   0.1468253968253812  0.3690476190476177  0.0000000000000000 B
   0.0238095238095113  0.3571428571428559  0.0000000000000000 B
   0.9007936507936378  0.3452380952380940  0.0000000000000000 B
   0.7777777777777608  0.3333333333333317  0.0000000000000000 B
   0.9960317460317292  0.7738095238095219  0.0000000000000000 B
   0.6547619047618873  0.3214285714285698  0.0000000000000000 B
   0.4087301587301440  0.2976190476190461  0.0000000000000000 B
   0.2857142857142705  0.2857142857142843  0.0000000000000000 B
   0.1626984126983970  0.2738095238095224  0.0000000000000000 B
   0.0396825396825236  0.2619047619047605  0.0000000000000000 B
   0.9166666666666536  0.2499999999999987  0.0000000000000000 B
   0.7936507936507802  0.2380952380952368  0.0000000000000000 B
   0.6706349206349032  0.2261904761904745  0.0000000000000000 B
   0.5476190476190297  0.2142857142857126  0.0000000000000000 B
   0.4246031746031598  0.2023809523809508  0.0000000000000000 B
   0.3015873015872863  0.1904761904761889  0.0000000000000000 B
   0.1785714285714128  0.1785714285714270  0.0000000000000000 B
   0.0555555555555394  0.1666666666666652  0.0000000000000000 B
   0.9325396825396659  0.1547619047619033  0.0000000000000000 B
   0.5317460317460174  0.3095238095238080  0.0000000000000000 B
   0.3769841269841123  0.4880952380952368  0.0000000000000000 B
   0.8730158730158522  0.7619047619047601  0.0000000000000000 B
   0.6269841269841052  0.7380952380952359  0.0000000000000000 B
   0.5674603174602950  0.3452380952380931  0.0000000000000000 B
   0.4444444444444215  0.3333333333333313  0.0000000000000000 B
   0.3214285714285481  0.3214285714285694  0.0000000000000000 B
   0.1984126984126746  0.3095238095238075  0.0000000000000000 B
   0.0753968253968011  0.2976190476190457  0.0000000000000000 B
   0.9523809523809312  0.2857142857142838  0.0000000000000000 B
   0.8293650793650542  0.2738095238095215  0.0000000000000000 B
   0.7063492063491807  0.2619047619047596  0.0000000000000000 B
   0.5833333333333073  0.2499999999999978  0.0000000000000000 B
   0.4603174603174374  0.2380952380952359  0.0000000000000000 B
   0.3373015873015639  0.2261904761904741  0.0000000000000000 B
   0.2142857142856904  0.2142857142857122  0.0000000000000000 B
   0.0912698412698170  0.2023809523809503  0.0000000000000000 B
   0.9682539682539399  0.1904761904761880  0.0000000000000000 B
   0.8452380952380700  0.1785714285714262  0.0000000000000000 B
   0.7222222222221966  0.1666666666666643  0.0000000000000000 B
   0.5992063492063231  0.1547619047619024  0.0000000000000000 B
   0.4761904761904496  0.1428571428571406  0.0000000000000000 B
   0.3531746031745797  0.1309523809523787  0.0000000000000000 B
   0.2301587301587062  0.1190476190476168  0.0000000000000000 B
   0.1071428571428328  0.1071428571428550  0.0000000000000000 B
   0.9841269841269593  0.0952380952380931  0.0000000000000000 B
   0.8611111111110823  0.0833333333333308  0.0000000000000000 B
   0.7380952380952124  0.0714285714285690  0.0000000000000000 B
   0.6150793650793389  0.0595238095238071  0.0000000000000000 B
   0.4920634920634654  0.0476190476190452  0.0000000000000000 B
   0.3690476190475920  0.0357142857142834  0.0000000000000000 B
   0.6904761904761649  0.3571428571428550  0.0000000000000000 B
   0.8134920634920384  0.3690476190476168  0.0000000000000000 B
   0.9365079365079119  0.3809523809523787  0.0000000000000000 B
   0.0595238095237889  0.3928571428571410  0.0000000000000000 B
   0.5039682539682317  0.7261904761904741  0.0000000000000000 B
   0.3809523809523618  0.7142857142857122  0.0000000000000000 B
   0.2579365079364884  0.7023809523809503  0.0000000000000000 B
   0.1349206349206149  0.6904761904761885  0.0000000000000000 B
   0.0119047619047414  0.6785714285714266  0.0000000000000000 B
   0.8888888888888715  0.6666666666666647  0.0000000000000000 B
   0.7658730158729945  0.6547619047619029  0.0000000000000000 B
   0.6428571428571210  0.6428571428571410  0.0000000000000000 B
   0.5198412698412476  0.6309523809523792  0.0000000000000000 B
   0.3968253968253741  0.6190476190476168  0.0000000000000000 B
   0.2738095238095042  0.6071428571428550  0.0000000000000000 B
   0.1507936507936307  0.5952380952380931  0.0000000000000000 B
   0.0277777777777573  0.5833333333333313  0.0000000000000000 B
   0.7499999999999787  0.7499999999999982  0.0000000000000000 B
   0.9047619047618802  0.5714285714285694  0.0000000000000000 B
   0.6587301587301368  0.5476190476190457  0.0000000000000000 B
   0.5357142857142634  0.5357142857142838  0.0000000000000000 B
   0.4126984126983899  0.5238095238095219  0.0000000000000000 B
   0.2896825396825164  0.5119047619047601  0.0000000000000000 B
   0.1666666666666465  0.4999999999999982  0.0000000000000000 B
   0.0436507936507731  0.4880952380952359  0.0000000000000000 B
   0.9206349206348996  0.4761904761904741  0.0000000000000000 B
   0.7976190476190226  0.4642857142857122  0.0000000000000000 B
   0.6746031746031527  0.4523809523809503  0.0000000000000000 B
   0.5515873015872792  0.4404761904761885  0.0000000000000000 B
   0.4285714285714057  0.4285714285714266  0.0000000000000000 B
   0.3055555555555323  0.4166666666666647  0.0000000000000000 B
   0.1825396825396588  0.4047619047619029  0.0000000000000000 B
   0.7817460317460103  0.5595238095238075  0.0000000000000000 B
   0.4999999999999858  0.4999999999999987  0.0000000000000000 B
   0.6230158730158610  0.5119047619047608  0.0000000000000000 B
   0.7460317460317327  0.5238095238095226  0.0000000000000000 B
   0.9404761904761871  0.6071428571428569  0.0000000000000000 B
   0.8174603174603137  0.5952380952380949  0.0000000000000000 B
   0.6944444444444402  0.5833333333333329  0.0000000000000000 B
   0.5714285714285676  0.5714285714285711  0.0000000000000000 B
   0.4484126984126950  0.5595238095238092  0.0000000000000000 B
   0.3253968253968216  0.5476190476190472  0.0000000000000000 B
   0.2023809523809481  0.5357142857142854  0.0000000000000000 B
   0.0793650793650755  0.5238095238095234  0.0000000000000000 B
   0.9563492063492021  0.5119047619047615  0.0000000000000000 B
   0.8333333333333286  0.4999999999999996  0.0000000000000000 B
   0.7103174603174551  0.4880952380952376  0.0000000000000000 B
   0.5873015873015826  0.4761904761904757  0.0000000000000000 B
   0.4642857142857100  0.4642857142857139  0.0000000000000000 B
   0.3412698412698365  0.4523809523809519  0.0000000000000000 B
   0.2182539682539630  0.4404761904761900  0.0000000000000000 B
   0.0952380952380905  0.4285714285714280  0.0000000000000000 B
   0.9722222222222179  0.4166666666666662  0.0000000000000000 B
   0.8492063492063435  0.4047619047619042  0.0000000000000000 B
   0.7261904761904701  0.3928571428571423  0.0000000000000000 B
   0.6031746031745975  0.3809523809523805  0.0000000000000000 B
   0.4801587301587249  0.3690476190476185  0.0000000000000000 B
   0.3571428571428514  0.3571428571428567  0.0000000000000000 B
   0.2341269841269780  0.3452380952380947  0.0000000000000000 B
   0.1111111111111054  0.3333333333333328  0.0000000000000000 B
   0.9880952380952328  0.3214285714285710  0.0000000000000000 B
   0.8650793650793593  0.3095238095238090  0.0000000000000000 B
   0.7420634920634850  0.2976190476190470  0.0000000000000000 B
   0.0634920634920602  0.6190476190476187  0.0000000000000000 B
   0.1865079365079332  0.6309523809523807  0.0000000000000000 B
   0.3095238095238062  0.6428571428571426  0.0000000000000000 B
   0.4325396825396797  0.6547619047619044  0.0000000000000000 B
   0.8769841269841269  0.9880952380952381  0.0000000000000000 B
   0.7539682539682537  0.9761904761904762  0.0000000000000000 B
   0.6309523809523807  0.9642857142857143  0.0000000000000000 B
   0.5079365079365075  0.9523809523809523  0.0000000000000000 B
   0.3849206349206344  0.9404761904761905  0.0000000000000000 B
   0.2619047619047613  0.9285714285714285  0.0000000000000000 B
   0.1388888888888882  0.9166666666666666  0.0000000000000000 B
   0.0158730158730150  0.9047619047619047  0.0000000000000000 B
   0.8928571428571419  0.8928571428571428  0.0000000000000000 B
   0.7698412698412689  0.8809523809523808  0.0000000000000000 B
   0.6468253968253956  0.8690476190476190  0.0000000000000000 B
   0.5238095238095226  0.8571428571428570  0.0000000000000000 B
   0.4007936507936494  0.8452380952380951  0.0000000000000000 B
   0.6190476190476124  0.2857142857142851  0.0000000000000000 B
   0.2777777777777763  0.8333333333333333  0.0000000000000000 B
   0.0317460317460301  0.8095238095238093  0.0000000000000000 B
   0.9087301587301568  0.7976190476190474  0.0000000000000000 B
   0.7857142857142838  0.7857142857142856  0.0000000000000000 B
   0.6626984126984108  0.7738095238095236  0.0000000000000000 B
   0.5396825396825378  0.7619047619047616  0.0000000000000000 B
   0.4166666666666643  0.7499999999999998  0.0000000000000000 B
   0.2936507936507913  0.7380952380952379  0.0000000000000000 B
   0.1706349206349183  0.7261904761904759  0.0000000000000000 B
   0.0476190476190452  0.7142857142857140  0.0000000000000000 B
   0.9246031746031718  0.7023809523809521  0.0000000000000000 B
   0.8015873015872987  0.6904761904761902  0.0000000000000000 B
   0.6785714285714257  0.6785714285714284  0.0000000000000000 B
   0.5555555555555527  0.6666666666666664  0.0000000000000000 B
   0.1547619047619031  0.8214285714285713  0.0000000000000000 B
   0.4960317460317398  0.2738095238095233  0.0000000000000000 B
   0.3730158730158664  0.2619047619047613  0.0000000000000000 B
   0.2499999999999929  0.2499999999999993  0.0000000000000000 B
   0.1904761904761809  0.8571428571428561  0.0000000000000000 B
   0.0674603174603075  0.8452380952380942  0.0000000000000000 B
   0.9444444444444358  0.8333333333333324  0.0000000000000000 B
   0.8214285714285605  0.8214285714285705  0.0000000000000000 B
   0.6984126984126870  0.8095238095238084  0.0000000000000000 B
   0.5753968253968154  0.7976190476190466  0.0000000000000000 B
   0.4523809523809401  0.7857142857142847  0.0000000000000000 B
   0.3293650793650684  0.7738095238095228  0.0000000000000000 B
   0.2063492063491950  0.7619047619047610  0.0000000000000000 B
   0.0833333333333233  0.7499999999999991  0.0000000000000000 B
   0.9603174603174498  0.7380952380952370  0.0000000000000000 B
   0.8373015873015763  0.7261904761904752  0.0000000000000000 B
   0.7142857142857029  0.7142857142857133  0.0000000000000000 B
   0.3134920634920526  0.8690476190476180  0.0000000000000000 B
   0.5912698412698294  0.7023809523809514  0.0000000000000000 B
   0.3452380952380825  0.6785714285714275  0.0000000000000000 B
   0.2222222222222108  0.6666666666666656  0.0000000000000000 B
   0.0992063492063373  0.6547619047619038  0.0000000000000000 B
   0.9761904761904656  0.6428571428571419  0.0000000000000000 B
   0.8531746031745904  0.6309523809523798  0.0000000000000000 B
   0.7301587301587187  0.6190476190476180  0.0000000000000000 B
   0.6071428571428452  0.6071428571428561  0.0000000000000000 B
   0.4841269841269700  0.5952380952380940  0.0000000000000000 B
   0.3611111111110983  0.5833333333333321  0.0000000000000000 B
   0.2380952380952248  0.5714285714285703  0.0000000000000000 B
   0.1150793650793531  0.5595238095238084  0.0000000000000000 B
   0.9920634920634797  0.5476190476190466  0.0000000000000000 B
   0.8690476190476062  0.5357142857142845  0.0000000000000000 B
   0.4682539682539559  0.6904761904761894  0.0000000000000000 B
   0.2460317460317221  0.0238095238095215  0.0000000000000000 B
   0.4365079365079261  0.8809523809523800  0.0000000000000000 B
   0.6825396825396730  0.9047619047619038  0.0000000000000000 B
   0.1269841269841203  0.2380952380952375  0.0000000000000000 B
   0.0039682539682477  0.2261904761904756  0.0000000000000000 B
   0.8809523809523743  0.2142857142857137  0.0000000000000000 B
   0.7579365079365008  0.2023809523809517  0.0000000000000000 B
   0.6349206349206273  0.1904761904761898  0.0000000000000000 B
   0.5119047619047556  0.1785714285714279  0.0000000000000000 B
   0.3888888888888804  0.1666666666666659  0.0000000000000000 B
   0.2658730158730087  0.1547619047619040  0.0000000000000000 B
   0.1428571428571352  0.1428571428571421  0.0000000000000000 B
   0.0198412698412618  0.1309523809523803  0.0000000000000000 B
   0.8968253968253901  0.1190476190476184  0.0000000000000000 B
   0.7738095238095148  0.1071428571428563  0.0000000000000000 B
   0.6507936507936432  0.0952380952380945  0.0000000000000000 B
   0.5595238095237995  0.8928571428571419  0.0000000000000000 B
   0.5277777777777697  0.0833333333333326  0.0000000000000000 B
   0.2817460317460228  0.0595238095238086  0.0000000000000000 B
   0.1587301587301511  0.0476190476190468  0.0000000000000000 B
   0.0357142857142776  0.0357142857142849  0.0000000000000000 B
   0.9126984126984041  0.0238095238095231  0.0000000000000000 B
   0.7896825396825307  0.0119047619047611  0.0000000000000000 B
   0.6666666666666572  0.9999999999999991  0.0000000000000000 B
   0.5436507936507855  0.9880952380952372  0.0000000000000000 B
   0.4206349206349103  0.9761904761904752  0.0000000000000000 B
   0.2976190476190386  0.9642857142857133  0.0000000000000000 B
   0.1746031746031651  0.9523809523809514  0.0000000000000000 B
   0.0515873015872934  0.9404761904761896  0.0000000000000000 B
   0.9285714285714199  0.9285714285714277  0.0000000000000000 B
   0.8055555555555447  0.9166666666666656  0.0000000000000000 B
   0.4047619047618962  0.0714285714285706  0.0000000000000000 B
   0.1230158730158486  0.0119047619047596  0.0000000000000000 B
