B252
 1.000000
    -7.6499999999999773  -13.2501886775280582   -0.0000000000000000
   -34.8499999999999375   22.0836477958799264   -0.0000000000000000
    -0.0000000000000000   -0.0000000000000000  -10.8800000000000008
B
252
Direct
   0.0000000000000000  0.0000000000000000  0.0000000000000000 B
   0.2539682539682833  0.2857142857142660  0.0000000000000000 B
   0.3055555555555838  0.2499999999999805  0.0000000000000000 B
   0.3571428571428861  0.2142857142856940  0.0000000000000000 B
   0.4087301587301884  0.1785714285714084  0.0000000000000000 B
   0.4603174603174889  0.1428571428571228  0.0000000000000000 B
   0.5119047619047929  0.1071428571428363  0.0000000000000000 B
   0.5634920634920935  0.0714285714285507  0.0000000000000000 B
   0.6150793650793958  0.0357142857142652  0.0000000000000000 B
   0.6666666666666963  0.9999999999999787  0.0000000000000000 B
   0.7182539682539986  0.9642857142856931  0.0000000000000000 B
   0.7698412698413009  0.9285714285714075  0.0000000000000000 B
   0.8214285714286014  0.8928571428571219  0.0000000000000000 B
   0.8730158730159054  0.8571428571428354  0.0000000000000000 B
   0.9246031746032060  0.8214285714285499  0.0000000000000000 B
   0.9761904761905082  0.7857142857142634  0.0000000000000000 B
   0.0277777777778088  0.7499999999999778  0.0000000000000000 B
   0.0793650793651111  0.7142857142856922  0.0000000000000000 B
   0.1309523809524133  0.6785714285714066  0.0000000000000000 B
   0.1825396825397139  0.6428571428571210  0.0000000000000000 B
   0.2341269841270162  0.6071428571428354  0.0000000000000000 B
   0.2857142857143167  0.5714285714285499  0.0000000000000000 B
   0.3373015873016207  0.5357142857142625  0.0000000000000000 B
   0.3888888888889213  0.4999999999999769  0.0000000000000000 B
   0.4404761904762236  0.4642857142856913  0.0000000000000000 B
   0.4920634920635258  0.4285714285714057  0.0000000000000000 B
   0.5436507936508264  0.3928571428571201  0.0000000000000000 B
   0.5952380952381287  0.3571428571428346  0.0000000000000000 B
   0.2023809523809810  0.3214285714285516  0.0000000000000000 B
   0.1507936507936805  0.3571428571428372  0.0000000000000000 B
   0.0992063492063782  0.3928571428571228  0.0000000000000000 B
   0.0476190476190759  0.4285714285714084  0.0000000000000000 B
   0.6031746031746259  0.4285714285714128  0.0000000000000000 B
   0.6547619047619282  0.3928571428571273  0.0000000000000000 B
   0.7063492063492296  0.3571428571428408  0.0000000000000000 B
   0.7579365079365310  0.3214285714285552  0.0000000000000000 B
   0.8095238095238324  0.2857142857142696  0.0000000000000000 B
   0.8611111111111356  0.2499999999999831  0.0000000000000000 B
   0.9126984126984370  0.2142857142856975  0.0000000000000000 B
   0.9642857142857384  0.1785714285714119  0.0000000000000000 B
   0.0158730158730407  0.1428571428571255  0.0000000000000000 B
   0.0674603174603421  0.1071428571428399  0.0000000000000000 B
   0.1190476190476435  0.0714285714285543  0.0000000000000000 B
   0.1706349206349449  0.0357142857142687  0.0000000000000000 B
   0.2222222222222481  0.9999999999999822  0.0000000000000000 B
   0.6468253968254292  0.3214285714285481  0.0000000000000000 B
   0.2738095238095495  0.9642857142856966  0.0000000000000000 B
   0.3769841269841532  0.8928571428571246  0.0000000000000000 B
   0.4285714285714546  0.8571428571428390  0.0000000000000000 B
   0.4801587301587560  0.8214285714285534  0.0000000000000000 B
   0.5317460317460574  0.7857142857142678  0.0000000000000000 B
   0.5833333333333597  0.7499999999999822  0.0000000000000000 B
   0.6349206349206611  0.7142857142856966  0.0000000000000000 B
   0.6865079365079643  0.6785714285714093  0.0000000000000000 B
   0.7380952380952657  0.6428571428571237  0.0000000000000000 B
   0.7896825396825671  0.6071428571428381  0.0000000000000000 B
   0.8412698412698685  0.5714285714285525  0.0000000000000000 B
   0.8928571428571699  0.5357142857142669  0.0000000000000000 B
   0.9444444444444722  0.4999999999999813  0.0000000000000000 B
   0.9960317460317736  0.4642857142856949  0.0000000000000000 B
   0.3253968253968518  0.9285714285714102  0.0000000000000000 B
   0.5515873015873245  0.4642857142856984  0.0000000000000000 B
   0.6984126984127332  0.2857142857142616  0.0000000000000000 B
   0.8015873015873360  0.2142857142856904  0.0000000000000000 B
   0.5039682539682939  0.0357142857142581  0.0000000000000000 B
   0.5555555555555962  0.9999999999999716  0.0000000000000000 B
   0.6071428571428967  0.9642857142856869  0.0000000000000000 B
   0.6587301587301990  0.9285714285714004  0.0000000000000000 B
   0.7103174603175013  0.8928571428571157  0.0000000000000000 B
   0.7619047619048018  0.8571428571428292  0.0000000000000000 B
   0.8134920634921059  0.8214285714285428  0.0000000000000000 B
   0.8650793650794064  0.7857142857142563  0.0000000000000000 B
   0.9166666666667087  0.7499999999999716  0.0000000000000000 B
   0.9682539682540092  0.7142857142856851  0.0000000000000000 B
   0.0198412698413115  0.6785714285714004  0.0000000000000000 B
   0.0714285714286138  0.6428571428571139  0.0000000000000000 B
   0.1230158730159143  0.6071428571428275  0.0000000000000000 B
   0.1746031746032184  0.5714285714285410  0.0000000000000000 B
   0.2261904761905189  0.5357142857142563  0.0000000000000000 B
   0.2777777777778212  0.4999999999999698  0.0000000000000000 B
   0.3293650793651235  0.4642857142856851  0.0000000000000000 B
   0.3809523809524240  0.4285714285713986  0.0000000000000000 B
   0.4325396825397263  0.3928571428571122  0.0000000000000000 B
   0.4841269841270268  0.3571428571428275  0.0000000000000000 B
   0.5357142857143291  0.3214285714285410  0.0000000000000000 B
   0.5873015873016314  0.2857142857142563  0.0000000000000000 B
   0.6388888888889337  0.2499999999999698  0.0000000000000000 B
   0.6904761904762360  0.2142857142856833  0.0000000000000000 B
   0.7420634920635365  0.1785714285713969  0.0000000000000000 B
   0.7936507936508388  0.1428571428571122  0.0000000000000000 B
   0.8452380952381393  0.1071428571428257  0.0000000000000000 B
   0.4523809523809934  0.0714285714285436  0.0000000000000000 B
   0.4007936507936911  0.1071428571428292  0.0000000000000000 B
   0.3492063492063888  0.1428571428571148  0.0000000000000000 B
   0.2976190476190865  0.1785714285714013  0.0000000000000000 B
   0.8531746031746383  0.1785714285714048  0.0000000000000000 B
   0.9047619047619389  0.1428571428571193  0.0000000000000000 B
   0.9563492063492411  0.1071428571428328  0.0000000000000000 B
   0.0079365079365434  0.0714285714285472  0.0000000000000000 B
   0.0595238095238440  0.0357142857142616  0.0000000000000000 B
   0.1111111111111462  0.9999999999999760  0.0000000000000000 B
   0.1626984126984485  0.9642857142856895  0.0000000000000000 B
   0.2142857142857508  0.9285714285714040  0.0000000000000000 B
   0.2658730158730513  0.8928571428571175  0.0000000000000000 B
   0.3174603174603536  0.8571428571428319  0.0000000000000000 B
   0.3690476190476559  0.8214285714285463  0.0000000000000000 B
   0.4206349206349564  0.7857142857142607  0.0000000000000000 B
   0.4722222222222587  0.7499999999999751  0.0000000000000000 B
   0.7500000000000355  0.2499999999999760  0.0000000000000000 B
   0.5238095238095610  0.7142857142856887  0.0000000000000000 B
   0.6269841269841638  0.6428571428571166  0.0000000000000000 B
   0.6785714285714661  0.6071428571428310  0.0000000000000000 B
   0.7301587301587684  0.5714285714285454  0.0000000000000000 B
   0.7817460317460689  0.5357142857142598  0.0000000000000000 B
   0.8333333333333712  0.4999999999999742  0.0000000000000000 B
   0.8849206349206717  0.4642857142856887  0.0000000000000000 B
   0.9365079365079740  0.4285714285714022  0.0000000000000000 B
   0.9880952380952763  0.3928571428571157  0.0000000000000000 B
   0.0396825396825786  0.3571428571428301  0.0000000000000000 B
   0.0912698412698809  0.3214285714285445  0.0000000000000000 B
   0.1428571428571814  0.2857142857142589  0.0000000000000000 B
   0.1944444444444837  0.2499999999999734  0.0000000000000000 B
   0.2460317460317842  0.2142857142856869  0.0000000000000000 B
   0.5753968253968633  0.6785714285714022  0.0000000000000000 B
   0.5000000000000231  0.4999999999999840  0.0000000000000000 B
   0.4484126984127208  0.5357142857142705  0.0000000000000000 B
   0.3968253968254194  0.5714285714285561  0.0000000000000000 B
   0.7023809523809581  0.8214285714285674  0.0000000000000000 B
   0.7539682539682602  0.7857142857142814  0.0000000000000000 B
   0.8055555555555620  0.7499999999999956  0.0000000000000000 B
   0.8571428571428636  0.7142857142857097  0.0000000000000000 B
   0.9087301587301653  0.6785714285714242  0.0000000000000000 B
   0.9603174603174671  0.6428571428571381  0.0000000000000000 B
   0.0119047619047690  0.6071428571428521  0.0000000000000000 B
   0.0634920634920708  0.5714285714285665  0.0000000000000000 B
   0.1150793650793722  0.5357142857142807  0.0000000000000000 B
   0.1666666666666741  0.4999999999999947  0.0000000000000000 B
   0.2182539682539764  0.4642857142857089  0.0000000000000000 B
   0.2698412698412778  0.4285714285714231  0.0000000000000000 B
   0.3214285714285792  0.3928571428571375  0.0000000000000000 B
   0.3730158730158815  0.3571428571428514  0.0000000000000000 B
   0.4246031746031833  0.3214285714285654  0.0000000000000000 B
   0.4761904761904847  0.2857142857142798  0.0000000000000000 B
   0.5277777777777866  0.2499999999999940  0.0000000000000000 B
   0.5793650793650884  0.2142857142857080  0.0000000000000000 B
   0.6309523809523903  0.1785714285714222  0.0000000000000000 B
   0.6825396825396921  0.1428571428571364  0.0000000000000000 B
   0.7341269841269935  0.1071428571428505  0.0000000000000000 B
   0.7857142857142954  0.0714285714285647  0.0000000000000000 B
   0.8373015873015972  0.0357142857142787  0.0000000000000000 B
   0.8888888888888991  0.9999999999999929  0.0000000000000000 B
   0.9404761904762005  0.9642857142857073  0.0000000000000000 B
   0.9920634920635023  0.9285714285714213  0.0000000000000000 B
   0.0436507936508046  0.8928571428571352  0.0000000000000000 B
   0.6507936507936565  0.8571428571428532  0.0000000000000000 B
   0.5992063492063548  0.8928571428571390  0.0000000000000000 B
   0.5476190476190530  0.9285714285714248  0.0000000000000000 B
   0.4960317460317512  0.9642857142857106  0.0000000000000000 B
   0.0515873015873018  0.9642857142857142  0.0000000000000000 B
   0.1031746031746035  0.9285714285714284  0.0000000000000000 B
   0.1547619047619053  0.8928571428571425  0.0000000000000000 B
   0.2063492063492071  0.8571428571428567  0.0000000000000000 B
   0.2579365079365089  0.8214285714285708  0.0000000000000000 B
   0.3095238095238106  0.7857142857142849  0.0000000000000000 B
   0.3611111111111124  0.7499999999999991  0.0000000000000000 B
   0.4126984126984141  0.7142857142857133  0.0000000000000000 B
   0.4642857142857159  0.6785714285714275  0.0000000000000000 B
   0.5158730158730177  0.6428571428571417  0.0000000000000000 B
   0.5674603174603194  0.6071428571428558  0.0000000000000000 B
   0.6190476190476212  0.5714285714285700  0.0000000000000000 B
   0.6706349206349230  0.5357142857142840  0.0000000000000000 B
   0.0952380952381060  0.8571428571428497  0.0000000000000000 B
   0.7222222222222248  0.4999999999999982  0.0000000000000000 B
   0.8253968253968282  0.4285714285714266  0.0000000000000000 B
   0.8769841269841301  0.3928571428571407  0.0000000000000000 B
   0.9285714285714318  0.3571428571428549  0.0000000000000000 B
   0.9801587301587336  0.3214285714285691  0.0000000000000000 B
   0.0317460317460354  0.2857142857142833  0.0000000000000000 B
   0.0833333333333370  0.2499999999999973  0.0000000000000000 B
   0.1349206349206389  0.2142857142857115  0.0000000000000000 B
   0.1865079365079407  0.1785714285714257  0.0000000000000000 B
   0.2380952380952424  0.1428571428571399  0.0000000000000000 B
   0.2896825396825442  0.1071428571428540  0.0000000000000000 B
   0.3412698412698461  0.0714285714285682  0.0000000000000000 B
   0.3928571428571477  0.0357142857142824  0.0000000000000000 B
   0.4444444444444495  0.9999999999999964  0.0000000000000000 B
   0.7738095238095265  0.4642857142857124  0.0000000000000000 B
   0.1468253968254079  0.8214285714285641  0.0000000000000000 B
   0.1984126984127097  0.7857142857142780  0.0000000000000000 B
   0.2500000000000115  0.7499999999999920  0.0000000000000000 B
   0.9523809523809694  0.5714285714285596  0.0000000000000000 B
   0.0039682539682717  0.5357142857142736  0.0000000000000000 B
   0.0555555555555731  0.4999999999999880  0.0000000000000000 B
   0.1071428571428754  0.4642857142857020  0.0000000000000000 B
   0.1587301587301768  0.4285714285714159  0.0000000000000000 B
   0.2103174603174782  0.3928571428571304  0.0000000000000000 B
   0.2619047619047805  0.3571428571428443  0.0000000000000000 B
   0.3134920634920819  0.3214285714285583  0.0000000000000000 B
   0.3650793650793842  0.2857142857142727  0.0000000000000000 B
   0.4166666666666856  0.2499999999999871  0.0000000000000000 B
   0.4682539682539870  0.2142857142857011  0.0000000000000000 B
   0.5198412698412893  0.1785714285714151  0.0000000000000000 B
   0.5714285714285907  0.1428571428571295  0.0000000000000000 B
   0.9007936507936680  0.6071428571428452  0.0000000000000000 B
   0.6230158730158921  0.1071428571428434  0.0000000000000000 B
   0.7261904761904967  0.0357142857142718  0.0000000000000000 B
   0.7777777777777981  0.9999999999999858  0.0000000000000000 B
   0.8293650793650995  0.9642857142857002  0.0000000000000000 B
   0.8809523809524009  0.9285714285714146  0.0000000000000000 B
   0.9325396825397032  0.8928571428571281  0.0000000000000000 B
   0.9841269841270046  0.8571428571428426  0.0000000000000000 B
   0.0357142857143069  0.8214285714285570  0.0000000000000000 B
   0.0873015873016092  0.7857142857142705  0.0000000000000000 B
   0.1388888888889106  0.7499999999999849  0.0000000000000000 B
   0.1904761904762120  0.7142857142856993  0.0000000000000000 B
   0.2420634920635134  0.6785714285714137  0.0000000000000000 B
   0.2936507936508157  0.6428571428571281  0.0000000000000000 B
   0.3452380952381180  0.6071428571428417  0.0000000000000000 B
   0.6746031746031944  0.0714285714285574  0.0000000000000000 B
   0.8968253968254416  0.0714285714285410  0.0000000000000000 B
   0.8492063492063666  0.6428571428571308  0.0000000000000000 B
   0.7460317460317629  0.7142857142857029  0.0000000000000000 B
   0.3015873015873130  0.7142857142857064  0.0000000000000000 B
   0.3531746031746148  0.6785714285714204  0.0000000000000000 B
   0.4047619047619162  0.6428571428571348  0.0000000000000000 B
   0.4563492063492185  0.6071428571428488  0.0000000000000000 B
   0.5079365079365203  0.5714285714285627  0.0000000000000000 B
   0.5595238095238217  0.5357142857142771  0.0000000000000000 B
   0.6111111111111240  0.4999999999999911  0.0000000000000000 B
   0.6626984126984259  0.4642857142857051  0.0000000000000000 B
   0.7142857142857273  0.4285714285714195  0.0000000000000000 B
   0.7658730158730287  0.3928571428571339  0.0000000000000000 B
   0.8174603174603305  0.3571428571428483  0.0000000000000000 B
   0.8690476190476328  0.3214285714285618  0.0000000000000000 B
   0.9206349206349342  0.2857142857142763  0.0000000000000000 B
   0.7976190476190643  0.6785714285714173  0.0000000000000000 B
   0.9722222222222361  0.2499999999999907  0.0000000000000000 B
   0.0753968253968402  0.1785714285714186  0.0000000000000000 B
   0.1269841269841416  0.1428571428571330  0.0000000000000000 B
   0.1785714285714430  0.1071428571428470  0.0000000000000000 B
   0.2301587301587444  0.0714285714285614  0.0000000000000000 B
   0.2817460317460467  0.0357142857142754  0.0000000000000000 B
   0.3333333333333481  0.9999999999999893  0.0000000000000000 B
   0.3849206349206504  0.9642857142857038  0.0000000000000000 B
   0.4365079365079527  0.9285714285714177  0.0000000000000000 B
   0.4880952380952541  0.8928571428571317  0.0000000000000000 B
   0.5396825396825555  0.8571428571428461  0.0000000000000000 B
   0.5912698412698569  0.8214285714285605  0.0000000000000000 B
   0.6428571428571583  0.7857142857142749  0.0000000000000000 B
   0.6944444444444606  0.7499999999999885  0.0000000000000000 B
   0.0238095238095379  0.2142857142857042  0.0000000000000000 B
   0.9484126984127439  0.0357142857142545  0.0000000000000000 B
