B252
 1.000000
   -18.7000000000000028    8.8334591183519819   -0.0000000000000000
    15.3000000000000114   26.5003773550560595   -0.0000000000000000
    -0.0000000000000000   -0.0000000000000000  -10.8800000000000008
B
252
Direct
   0.0000000000000000  0.0000000000000000  0.0000000000000000 B
   0.5714285714285730  0.4206349206349214  0.0000000000000000 B
   0.5000000000000013  0.3888888888888895  0.0000000000000000 B
   0.4285714285714302  0.3571428571428579  0.0000000000000000 B
   0.3571428571428590  0.3253968253968262  0.0000000000000000 B
   0.2857142857142874  0.2936507936507944  0.0000000000000000 B
   0.2142857142857157  0.2619047619047625  0.0000000000000000 B
   0.1428571428571446  0.2301587301587311  0.0000000000000000 B
   0.0714285714285734  0.1984126984126995  0.0000000000000000 B
   0.0000000000000018  0.1666666666666676  0.0000000000000000 B
   0.9285714285714297  0.1349206349206358  0.0000000000000000 B
   0.8571428571428594  0.1031746031746041  0.0000000000000000 B
   0.7857142857142883  0.0714285714285725  0.0000000000000000 B
   0.7142857142857162  0.0396825396825407  0.0000000000000000 B
   0.6428571428571441  0.0079365079365088  0.0000000000000000 B
   0.5714285714285738  0.9761904761904772  0.0000000000000000 B
   0.5000000000000027  0.9444444444444455  0.0000000000000000 B
   0.4285714285714306  0.9126984126984139  0.0000000000000000 B
   0.3571428571428585  0.8809523809523818  0.0000000000000000 B
   0.2857142857142883  0.8492063492063502  0.0000000000000000 B
   0.2142857142857171  0.8174603174603186  0.0000000000000000 B
   0.1428571428571450  0.7857142857142869  0.0000000000000000 B
   0.0714285714285730  0.7539682539682548  0.0000000000000000 B
   0.0000000000000027  0.7222222222222232  0.0000000000000000 B
   0.9285714285714315  0.6904761904761916  0.0000000000000000 B
   0.8571428571428594  0.6587301587301599  0.0000000000000000 B
   0.7857142857142874  0.6269841269841279  0.0000000000000000 B
   0.7142857142857171  0.5952380952380962  0.0000000000000000 B
   0.6428571428571446  0.4523809523809532  0.0000000000000000 B
   0.7142857142857157  0.4841269841269848  0.0000000000000000 B
   0.7857142857142874  0.5158730158730165  0.0000000000000000 B
   0.8571428571428585  0.5476190476190483  0.0000000000000000 B
   0.8571428571428577  0.4365079365079367  0.0000000000000000 B
   0.7857142857142863  0.4047619047619050  0.0000000000000000 B
   0.7142857142857149  0.3730158730158734  0.0000000000000000 B
   0.6428571428571435  0.3412698412698416  0.0000000000000000 B
   0.5714285714285721  0.3095238095238099  0.0000000000000000 B
   0.5000000000000007  0.2777777777777781  0.0000000000000000 B
   0.4285714285714293  0.2460317460317464  0.0000000000000000 B
   0.3571428571428579  0.2142857142857146  0.0000000000000000 B
   0.2857142857142865  0.1825396825396829  0.0000000000000000 B
   0.2142857142857151  0.1507936507936511  0.0000000000000000 B
   0.1428571428571437  0.1190476190476195  0.0000000000000000 B
   0.0714285714285723  0.0873015873015878  0.0000000000000000 B
   0.0000000000000009  0.0555555555555560  0.0000000000000000 B
   0.6428571428571459  0.5634920634920646  0.0000000000000000 B
   0.9285714285714297  0.0238095238095243  0.0000000000000000 B
   0.7857142857142869  0.9603174603174609  0.0000000000000000 B
   0.7142857142857153  0.9285714285714290  0.0000000000000000 B
   0.6428571428571441  0.8968253968253974  0.0000000000000000 B
   0.5714285714285725  0.8650793650793656  0.0000000000000000 B
   0.5000000000000013  0.8333333333333339  0.0000000000000000 B
   0.4285714285714297  0.8015873015873021  0.0000000000000000 B
   0.3571428571428585  0.7698412698412704  0.0000000000000000 B
   0.2857142857142869  0.7380952380952388  0.0000000000000000 B
   0.2142857142857157  0.7063492063492069  0.0000000000000000 B
   0.1428571428571441  0.6746031746031753  0.0000000000000000 B
   0.0714285714285730  0.6428571428571435  0.0000000000000000 B
   0.0000000000000013  0.6111111111111118  0.0000000000000000 B
   0.9285714285714302  0.5793650793650800  0.0000000000000000 B
   0.8571428571428581  0.9920634920634925  0.0000000000000000 B
   0.9285714285714290  0.4682539682539685  0.0000000000000000 B
   0.5714285714285738  0.5317460317460330  0.0000000000000000 B
   0.4285714285714315  0.4682539682539697  0.0000000000000000 B
   0.0714285714285756  0.4206349206349227  0.0000000000000000 B
   0.0000000000000044  0.3888888888888911  0.0000000000000000 B
   0.9285714285714324  0.3571428571428590  0.0000000000000000 B
   0.8571428571428612  0.3253968253968273  0.0000000000000000 B
   0.7857142857142900  0.2936507936507957  0.0000000000000000 B
   0.7142857142857171  0.2619047619047636  0.0000000000000000 B
   0.6428571428571459  0.2301587301587320  0.0000000000000000 B
   0.5714285714285747  0.1984126984127004  0.0000000000000000 B
   0.5000000000000036  0.1666666666666687  0.0000000000000000 B
   0.4285714285714324  0.1349206349206371  0.0000000000000000 B
   0.3571428571428612  0.1031746031746050  0.0000000000000000 B
   0.2857142857142900  0.0714285714285734  0.0000000000000000 B
   0.2142857142857189  0.0396825396825418  0.0000000000000000 B
   0.1428571428571459  0.0079365079365097  0.0000000000000000 B
   0.0714285714285747  0.9761904761904781  0.0000000000000000 B
   0.0000000000000036  0.9444444444444464  0.0000000000000000 B
   0.9285714285714324  0.9126984126984148  0.0000000000000000 B
   0.8571428571428612  0.8809523809523832  0.0000000000000000 B
   0.7857142857142900  0.8492063492063515  0.0000000000000000 B
   0.7142857142857189  0.8174603174603199  0.0000000000000000 B
   0.6428571428571477  0.7857142857142883  0.0000000000000000 B
   0.5714285714285747  0.7539682539682557  0.0000000000000000 B
   0.5000000000000036  0.7222222222222241  0.0000000000000000 B
   0.4285714285714324  0.6904761904761925  0.0000000000000000 B
   0.3571428571428612  0.6587301587301608  0.0000000000000000 B
   0.2857142857142900  0.6269841269841292  0.0000000000000000 B
   0.2142857142857189  0.5952380952380976  0.0000000000000000 B
   0.1428571428571468  0.4523809523809543  0.0000000000000000 B
   0.2142857142857180  0.4841269841269860  0.0000000000000000 B
   0.2857142857142883  0.5158730158730171  0.0000000000000000 B
   0.3571428571428612  0.5476190476190492  0.0000000000000000 B
   0.3571428571428603  0.4365079365079381  0.0000000000000000 B
   0.2857142857142891  0.4047619047619064  0.0000000000000000 B
   0.2142857142857171  0.3730158730158744  0.0000000000000000 B
   0.1428571428571459  0.3412698412698427  0.0000000000000000 B
   0.0714285714285747  0.3095238095238111  0.0000000000000000 B
   0.0000000000000018  0.2777777777777790  0.0000000000000000 B
   0.9285714285714315  0.2460317460317474  0.0000000000000000 B
   0.8571428571428603  0.2142857142857157  0.0000000000000000 B
   0.7857142857142891  0.1825396825396841  0.0000000000000000 B
   0.7142857142857180  0.1507936507936525  0.0000000000000000 B
   0.6428571428571459  0.1190476190476204  0.0000000000000000 B
   0.5714285714285747  0.0873015873015888  0.0000000000000000 B
   0.5000000000000036  0.0555555555555571  0.0000000000000000 B
   0.5000000000000018  0.5000000000000009  0.0000000000000000 B
   0.4285714285714306  0.0238095238095251  0.0000000000000000 B
   0.2857142857142891  0.9603174603174618  0.0000000000000000 B
   0.2142857142857180  0.9285714285714302  0.0000000000000000 B
   0.1428571428571468  0.8968253968253985  0.0000000000000000 B
   0.0714285714285747  0.8650793650793664  0.0000000000000000 B
   0.0000000000000036  0.8333333333333348  0.0000000000000000 B
   0.9285714285714324  0.8015873015873032  0.0000000000000000 B
   0.8571428571428594  0.7698412698412711  0.0000000000000000 B
   0.7857142857142891  0.7380952380952395  0.0000000000000000 B
   0.7142857142857180  0.7063492063492078  0.0000000000000000 B
   0.6428571428571468  0.6746031746031762  0.0000000000000000 B
   0.5714285714285756  0.6428571428571446  0.0000000000000000 B
   0.5000000000000036  0.6111111111111125  0.0000000000000000 B
   0.4285714285714324  0.5793650793650809  0.0000000000000000 B
   0.3571428571428603  0.9920634920634934  0.0000000000000000 B
   0.0000000000000004  0.5000000000000002  0.0000000000000000 B
   0.0714285714285765  0.0317460317460339  0.0000000000000000 B
   0.1428571428571477  0.0634920634920655  0.0000000000000000 B
   0.6428571428571441  0.9523809523809530  0.0000000000000000 B
   0.5714285714285725  0.9206349206349211  0.0000000000000000 B
   0.5000000000000009  0.8888888888888893  0.0000000000000000 B
   0.4285714285714297  0.8571428571428577  0.0000000000000000 B
   0.3571428571428585  0.8253968253968260  0.0000000000000000 B
   0.2857142857142869  0.7936507936507942  0.0000000000000000 B
   0.2142857142857153  0.7619047619047623  0.0000000000000000 B
   0.1428571428571441  0.7301587301587309  0.0000000000000000 B
   0.0714285714285730  0.6984126984126993  0.0000000000000000 B
   0.0000000000000013  0.6666666666666674  0.0000000000000000 B
   0.9285714285714297  0.6349206349206356  0.0000000000000000 B
   0.8571428571428585  0.6031746031746039  0.0000000000000000 B
   0.7857142857142874  0.5714285714285723  0.0000000000000000 B
   0.7142857142857157  0.5396825396825404  0.0000000000000000 B
   0.6428571428571441  0.5079365079365086  0.0000000000000000 B
   0.5714285714285730  0.4761904761904769  0.0000000000000000 B
   0.5000000000000018  0.4444444444444453  0.0000000000000000 B
   0.4285714285714302  0.4126984126984135  0.0000000000000000 B
   0.3571428571428585  0.3809523809523816  0.0000000000000000 B
   0.2857142857142874  0.3492063492063500  0.0000000000000000 B
   0.2142857142857162  0.3174603174603183  0.0000000000000000 B
   0.1428571428571446  0.2857142857142865  0.0000000000000000 B
   0.0714285714285730  0.2539682539682546  0.0000000000000000 B
   0.0000000000000018  0.2222222222222232  0.0000000000000000 B
   0.9285714285714306  0.1904761904761916  0.0000000000000000 B
   0.8571428571428594  0.1587301587301597  0.0000000000000000 B
   0.7857142857142874  0.1269841269841279  0.0000000000000000 B
   0.7142857142857153  0.9841269841269846  0.0000000000000000 B
   0.7857142857142869  0.0158730158730164  0.0000000000000000 B
   0.8571428571428581  0.0476190476190481  0.0000000000000000 B
   0.9285714285714297  0.0793650793650799  0.0000000000000000 B
   0.9285714285714286  0.9682539682539683  0.0000000000000000 B
   0.8571428571428572  0.9365079365079365  0.0000000000000000 B
   0.7857142857142858  0.9047619047619048  0.0000000000000000 B
   0.7142857142857144  0.8730158730158730  0.0000000000000000 B
   0.6428571428571430  0.8412698412698414  0.0000000000000000 B
   0.5714285714285716  0.8095238095238096  0.0000000000000000 B
   0.5000000000000002  0.7777777777777779  0.0000000000000000 B
   0.4285714285714288  0.7460317460317462  0.0000000000000000 B
   0.3571428571428574  0.7142857142857144  0.0000000000000000 B
   0.2857142857142860  0.6825396825396828  0.0000000000000000 B
   0.2142857142857146  0.6507936507936509  0.0000000000000000 B
   0.1428571428571432  0.6190476190476193  0.0000000000000000 B
   0.0714285714285718  0.5873015873015874  0.0000000000000000 B
   0.7142857142857162  0.0952380952380962  0.0000000000000000 B
   0.0000000000000004  0.5555555555555558  0.0000000000000000 B
   0.8571428571428577  0.4920634920634923  0.0000000000000000 B
   0.7857142857142863  0.4603174603174606  0.0000000000000000 B
   0.7142857142857149  0.4285714285714288  0.0000000000000000 B
   0.6428571428571435  0.3968253968253971  0.0000000000000000 B
   0.5714285714285721  0.3650793650793654  0.0000000000000000 B
   0.5000000000000007  0.3333333333333337  0.0000000000000000 B
   0.4285714285714293  0.3015873015873020  0.0000000000000000 B
   0.3571428571428579  0.2698412698412702  0.0000000000000000 B
   0.2857142857142865  0.2380952380952385  0.0000000000000000 B
   0.2142857142857151  0.2063492063492067  0.0000000000000000 B
   0.1428571428571437  0.1746031746031750  0.0000000000000000 B
   0.0714285714285723  0.1428571428571432  0.0000000000000000 B
   0.0000000000000009  0.1111111111111116  0.0000000000000000 B
   0.9285714285714290  0.5238095238095241  0.0000000000000000 B
   0.6428571428571450  0.0634920634920646  0.0000000000000000 B
   0.5714285714285738  0.0317460317460327  0.0000000000000000 B
   0.5000000000000018  0.0000000000000009  0.0000000000000000 B
   0.1428571428571459  0.9523809523809539  0.0000000000000000 B
   0.0714285714285747  0.9206349206349222  0.0000000000000000 B
   0.0000000000000036  0.8888888888888906  0.0000000000000000 B
   0.9285714285714315  0.8571428571428585  0.0000000000000000 B
   0.8571428571428603  0.8253968253968269  0.0000000000000000 B
   0.7857142857142891  0.7936507936507953  0.0000000000000000 B
   0.7142857142857171  0.7619047619047632  0.0000000000000000 B
   0.6428571428571459  0.7301587301587316  0.0000000000000000 B
   0.5714285714285747  0.6984126984126999  0.0000000000000000 B
   0.5000000000000036  0.6666666666666683  0.0000000000000000 B
   0.4285714285714324  0.6349206349206367  0.0000000000000000 B
   0.3571428571428603  0.6031746031746046  0.0000000000000000 B
   0.2857142857142891  0.5714285714285730  0.0000000000000000 B
   0.2142857142857171  0.9841269841269855  0.0000000000000000 B
   0.2142857142857180  0.5396825396825413  0.0000000000000000 B
   0.0714285714285747  0.4761904761904781  0.0000000000000000 B
   0.0000000000000036  0.4444444444444464  0.0000000000000000 B
   0.9285714285714324  0.4126984126984148  0.0000000000000000 B
   0.8571428571428612  0.3809523809523832  0.0000000000000000 B
   0.7857142857142900  0.3492063492063511  0.0000000000000000 B
   0.7142857142857189  0.3174603174603194  0.0000000000000000 B
   0.6428571428571477  0.2857142857142878  0.0000000000000000 B
   0.5714285714285747  0.2539682539682557  0.0000000000000000 B
   0.5000000000000036  0.2222222222222241  0.0000000000000000 B
   0.4285714285714324  0.1904761904761925  0.0000000000000000 B
   0.3571428571428612  0.1587301587301608  0.0000000000000000 B
   0.2857142857142900  0.1269841269841292  0.0000000000000000 B
   0.2142857142857189  0.0952380952380971  0.0000000000000000 B
   0.1428571428571459  0.5079365079365092  0.0000000000000000 B
   0.1428571428571477  0.5634920634920659  0.0000000000000000 B
   0.2857142857142883  0.0158730158730171  0.0000000000000000 B
   0.4285714285714315  0.0793650793650809  0.0000000000000000 B
   0.4285714285714306  0.9682539682539693  0.0000000000000000 B
   0.3571428571428594  0.9365079365079376  0.0000000000000000 B
   0.2857142857142883  0.9047619047619060  0.0000000000000000 B
   0.2142857142857162  0.8730158730158739  0.0000000000000000 B
   0.1428571428571450  0.8412698412698423  0.0000000000000000 B
   0.0714285714285738  0.8095238095238106  0.0000000000000000 B
   0.0000000000000018  0.7777777777777786  0.0000000000000000 B
   0.9285714285714306  0.7460317460317469  0.0000000000000000 B
   0.8571428571428594  0.7142857142857153  0.0000000000000000 B
   0.7857142857142883  0.6825396825396837  0.0000000000000000 B
   0.7142857142857171  0.6507936507936520  0.0000000000000000 B
   0.6428571428571450  0.6190476190476200  0.0000000000000000 B
   0.5714285714285738  0.5873015873015883  0.0000000000000000 B
   0.3571428571428603  0.0476190476190492  0.0000000000000000 B
   0.5000000000000027  0.5555555555555567  0.0000000000000000 B
   0.3571428571428594  0.4920634920634934  0.0000000000000000 B
   0.2857142857142883  0.4603174603174618  0.0000000000000000 B
   0.2142857142857171  0.4285714285714302  0.0000000000000000 B
   0.1428571428571459  0.3968253968253985  0.0000000000000000 B
   0.0714285714285738  0.3650793650793664  0.0000000000000000 B
   0.0000000000000027  0.3333333333333348  0.0000000000000000 B
   0.9285714285714315  0.3015873015873032  0.0000000000000000 B
   0.8571428571428594  0.2698412698412711  0.0000000000000000 B
   0.7857142857142883  0.2380952380952395  0.0000000000000000 B
   0.7142857142857171  0.2063492063492078  0.0000000000000000 B
   0.6428571428571459  0.1746031746031762  0.0000000000000000 B
   0.5714285714285747  0.1428571428571446  0.0000000000000000 B
   0.5000000000000027  0.1111111111111125  0.0000000000000000 B
   0.4285714285714306  0.5238095238095246  0.0000000000000000 B
   0.0714285714285765  0.5317460317460343  0.0000000000000000 B
