B125
 1.000000
   -14.4500000000000028    7.3612159319600039   -0.0000000000000000
    13.6000000000000227   14.7224318639200078   -0.0000000000000000
    -0.0000000000000000   -0.0000000000000000  -10.8800000000000008
B
125
Direct
   0.0000000000000000  0.0000000000000000  0.0000000000000000 B
   0.6399999999999935  0.6799999999999971  0.0000000000000000 B
   0.7439999999999944  0.7279999999999971  0.0000000000000000 B
   0.8479999999999936  0.7759999999999971  0.0000000000000000 B
   0.9519999999999929  0.8239999999999963  0.0000000000000000 B
   0.0559999999999938  0.8719999999999963  0.0000000000000000 B
   0.1599999999999930  0.9199999999999964  0.0000000000000000 B
   0.2639999999999940  0.9679999999999964  0.0000000000000000 B
   0.3679999999999932  0.0159999999999969  0.0000000000000000 B
   0.4719999999999942  0.0639999999999969  0.0000000000000000 B
   0.5759999999999934  0.1119999999999970  0.0000000000000000 B
   0.6799999999999944  0.1599999999999970  0.0000000000000000 B
   0.7839999999999936  0.2079999999999971  0.0000000000000000 B
   0.8879999999999946  0.2559999999999971  0.0000000000000000 B
   0.9919999999999938  0.3039999999999972  0.0000000000000000 B
   0.0959999999999948  0.3519999999999972  0.0000000000000000 B
   0.1999999999999948  0.3999999999999977  0.0000000000000000 B
   0.3039999999999949  0.4479999999999977  0.0000000000000000 B
   0.4079999999999950  0.4959999999999978  0.0000000000000000 B
   0.5119999999999942  0.5439999999999969  0.0000000000000000 B
   0.6159999999999943  0.5919999999999970  0.0000000000000000 B
   0.7199999999999944  0.6399999999999970  0.0000000000000000 B
   0.8239999999999945  0.6879999999999971  0.0000000000000000 B
   0.9279999999999946  0.7359999999999975  0.0000000000000000 B
   0.0319999999999947  0.7839999999999976  0.0000000000000000 B
   0.1359999999999948  0.8319999999999976  0.0000000000000000 B
   0.2399999999999949  0.8799999999999977  0.0000000000000000 B
   0.3439999999999950  0.9279999999999977  0.0000000000000000 B
   0.5359999999999943  0.6319999999999970  0.0000000000000000 B
   0.4319999999999933  0.5839999999999970  0.0000000000000000 B
   0.3279999999999941  0.5359999999999969  0.0000000000000000 B
   0.2239999999999931  0.4879999999999969  0.0000000000000000 B
   0.3119999999999923  0.1439999999999957  0.0000000000000000 B
   0.4159999999999915  0.1919999999999957  0.0000000000000000 B
   0.5199999999999925  0.2399999999999958  0.0000000000000000 B
   0.6239999999999899  0.2879999999999949  0.0000000000000000 B
   0.7279999999999909  0.3359999999999959  0.0000000000000000 B
   0.8319999999999919  0.3839999999999959  0.0000000000000000 B
   0.9359999999999911  0.4319999999999959  0.0000000000000000 B
   0.0399999999999920  0.4799999999999960  0.0000000000000000 B
   0.1439999999999912  0.5279999999999960  0.0000000000000000 B
   0.2479999999999922  0.5759999999999961  0.0000000000000000 B
   0.3519999999999914  0.6239999999999961  0.0000000000000000 B
   0.4559999999999924  0.6719999999999962  0.0000000000000000 B
   0.5599999999999916  0.7199999999999962  0.0000000000000000 B
   0.4479999999999951  0.9759999999999978  0.0000000000000000 B
   0.6639999999999926  0.7679999999999962  0.0000000000000000 B
   0.8719999999999928  0.8639999999999963  0.0000000000000000 B
   0.9759999999999920  0.9119999999999964  0.0000000000000000 B
   0.0799999999999930  0.9599999999999964  0.0000000000000000 B
   0.1839999999999922  0.0079999999999956  0.0000000000000000 B
   0.2879999999999914  0.0559999999999956  0.0000000000000000 B
   0.3919999999999924  0.1039999999999957  0.0000000000000000 B
   0.4959999999999916  0.1519999999999957  0.0000000000000000 B
   0.5999999999999925  0.1999999999999957  0.0000000000000000 B
   0.7039999999999917  0.2479999999999967  0.0000000000000000 B
   0.8079999999999927  0.2959999999999967  0.0000000000000000 B
   0.9119999999999919  0.3439999999999968  0.0000000000000000 B
   0.0159999999999929  0.3919999999999968  0.0000000000000000 B
   0.1199999999999939  0.4399999999999968  0.0000000000000000 B
   0.7679999999999918  0.8159999999999963  0.0000000000000000 B
   0.2079999999999913  0.0959999999999956  0.0000000000000000 B
   0.5519999999999960  0.0239999999999978  0.0000000000000000 B
   0.7599999999999962  0.1199999999999979  0.0000000000000000 B
   0.1919999999999980  0.7039999999999991  0.0000000000000000 B
   0.2959999999999980  0.7519999999999989  0.0000000000000000 B
   0.3999999999999981  0.7999999999999989  0.0000000000000000 B
   0.5039999999999982  0.8479999999999992  0.0000000000000000 B
   0.6079999999999983  0.8959999999999992  0.0000000000000000 B
   0.7119999999999984  0.9439999999999993  0.0000000000000000 B
   0.8159999999999985  0.9919999999999991  0.0000000000000000 B
   0.9199999999999986  0.0399999999999993  0.0000000000000000 B
   0.0239999999999987  0.0879999999999993  0.0000000000000000 B
   0.1279999999999986  0.1359999999999992  0.0000000000000000 B
   0.2319999999999987  0.1839999999999994  0.0000000000000000 B
   0.3359999999999987  0.2319999999999994  0.0000000000000000 B
   0.4399999999999991  0.2799999999999995  0.0000000000000000 B
   0.5439999999999989  0.3279999999999995  0.0000000000000000 B
   0.6479999999999990  0.3759999999999994  0.0000000000000000 B
   0.7519999999999991  0.4239999999999996  0.0000000000000000 B
   0.8559999999999992  0.4719999999999996  0.0000000000000000 B
   0.9599999999999993  0.5199999999999996  0.0000000000000000 B
   0.0639999999999993  0.5679999999999996  0.0000000000000000 B
   0.1679999999999994  0.6159999999999997  0.0000000000000000 B
   0.2719999999999995  0.6639999999999997  0.0000000000000000 B
   0.3759999999999996  0.7119999999999997  0.0000000000000000 B
   0.4799999999999996  0.7599999999999998  0.0000000000000000 B
   0.5839999999999996  0.8079999999999998  0.0000000000000000 B
   0.6879999999999997  0.8559999999999999  0.0000000000000000 B
   0.7919999999999998  0.9039999999999999  0.0000000000000000 B
   0.8959999999999999  0.9520000000000000  0.0000000000000000 B
   0.0879999999999979  0.6559999999999990  0.0000000000000000 B
   0.9839999999999978  0.6079999999999990  0.0000000000000000 B
   0.8799999999999981  0.5599999999999989  0.0000000000000000 B
   0.7759999999999980  0.5119999999999989  0.0000000000000000 B
   0.8639999999999954  0.1679999999999979  0.0000000000000000 B
   0.9679999999999955  0.2159999999999980  0.0000000000000000 B
   0.0719999999999956  0.2639999999999980  0.0000000000000000 B
   0.1759999999999957  0.3119999999999981  0.0000000000000000 B
   0.2799999999999958  0.3599999999999981  0.0000000000000000 B
   0.3839999999999959  0.4079999999999981  0.0000000000000000 B
   0.4879999999999960  0.4559999999999982  0.0000000000000000 B
   0.5919999999999961  0.5039999999999978  0.0000000000000000 B
   0.6959999999999962  0.5519999999999978  0.0000000000000000 B
   0.7999999999999963  0.5999999999999979  0.0000000000000000 B
   0.9039999999999964  0.6479999999999984  0.0000000000000000 B
   0.0079999999999965  0.6959999999999984  0.0000000000000000 B
   0.1119999999999965  0.7439999999999984  0.0000000000000000 B
   0.6559999999999961  0.0719999999999978  0.0000000000000000 B
   0.2159999999999966  0.7919999999999985  0.0000000000000000 B
   0.4239999999999968  0.8879999999999986  0.0000000000000000 B
   0.5279999999999969  0.9359999999999982  0.0000000000000000 B
   0.6319999999999970  0.9839999999999982  0.0000000000000000 B
   0.7359999999999971  0.0319999999999985  0.0000000000000000 B
   0.8399999999999972  0.0799999999999985  0.0000000000000000 B
   0.9439999999999973  0.1279999999999986  0.0000000000000000 B
   0.0479999999999974  0.1759999999999986  0.0000000000000000 B
   0.1519999999999975  0.2239999999999989  0.0000000000000000 B
   0.2559999999999971  0.2719999999999985  0.0000000000000000 B
   0.3599999999999972  0.3199999999999985  0.0000000000000000 B
   0.4639999999999973  0.3679999999999988  0.0000000000000000 B
   0.5679999999999974  0.4159999999999988  0.0000000000000000 B
   0.6719999999999975  0.4639999999999989  0.0000000000000000 B
   0.3199999999999967  0.8399999999999985  0.0000000000000000 B
   0.1039999999999921  0.0479999999999956  0.0000000000000000 B
