B135
 1.000000
    -0.0000000000000000   -2.9444863727840001   -0.0000000000000000
  -114.7500000000000142    1.4722431863919780   -0.0000000000000000
    -0.0000000000000000   -0.0000000000000000  -10.8800000000000008
B
135
Direct
   0.0000000000000000  0.0000000000000000  0.0000000000000000 B
   0.6370370370370395  0.2740740740740740  0.0000000000000000 B
   0.1407407407407462  0.2814814814814814  0.0000000000000000 B
   0.6444444444444457  0.2888888888888889  0.0000000000000000 B
   0.1481481481481524  0.2962962962962963  0.0000000000000000 B
   0.6518518518518519  0.3037037037037037  0.0000000000000000 B
   0.1555555555555586  0.3111111111111111  0.0000000000000000 B
   0.6592592592592581  0.3185185185185185  0.0000000000000000 B
   0.1629629629629648  0.3259259259259260  0.0000000000000000 B
   0.6666666666666714  0.3333333333333333  0.0000000000000000 B
   0.1703703703703781  0.3407407407407407  0.0000000000000000 B
   0.6740740740740776  0.3481481481481481  0.0000000000000000 B
   0.1777777777777771  0.3555555555555555  0.0000000000000000 B
   0.6814814814814838  0.3629629629629629  0.0000000000000000 B
   0.1851851851851833  0.3703703703703703  0.0000000000000000 B
   0.1333333333333400  0.2666666666666666  0.0000000000000000 B
   0.6888888888888900  0.3777777777777778  0.0000000000000000 B
   0.6962962962962962  0.3925925925925926  0.0000000000000000 B
   0.1999999999999957  0.4000000000000000  0.0000000000000000 B
   0.7037037037037024  0.4074074074074074  0.0000000000000000 B
   0.2074074074074090  0.4148148148148147  0.0000000000000000 B
   0.7111111111111157  0.4222222222222222  0.0000000000000000 B
   0.2148148148148152  0.4296296296296296  0.0000000000000000 B
   0.7185185185185219  0.4370370370370370  0.0000000000000000 B
   0.2222222222222214  0.4444444444444444  0.0000000000000000 B
   0.7259259259259281  0.4518518518518518  0.0000000000000000 B
   0.2296296296296276  0.4592592592592593  0.0000000000000000 B
   0.7333333333333343  0.4666666666666667  0.0000000000000000 B
   0.2370370370370338  0.4740740740740741  0.0000000000000000 B
   0.7407407407407405  0.4814814814814815  0.0000000000000000 B
   0.2444444444444471  0.4888888888888888  0.0000000000000000 B
   0.1925925925925895  0.3851851851851852  0.0000000000000000 B
   0.7481481481481538  0.4962962962962962  0.0000000000000000 B
   0.6296296296296333  0.2592592592592592  0.0000000000000000 B
   0.6222222222222200  0.2444444444444445  0.0000000000000000 B
   0.5111111111111200  0.0222222222222221  0.0000000000000000 B
   0.0148148148148124  0.0296296296296296  0.0000000000000000 B
   0.5185185185185190  0.0370370370370370  0.0000000000000000 B
   0.0222222222222257  0.0444444444444444  0.0000000000000000 B
   0.5259259259259252  0.0518518518518518  0.0000000000000000 B
   0.0296296296296319  0.0592592592592592  0.0000000000000000 B
   0.5333333333333314  0.0666666666666667  0.0000000000000000 B
   0.0370370370370381  0.0740740740740741  0.0000000000000000 B
   0.5407407407407376  0.0814814814814815  0.0000000000000000 B
   0.0444444444444443  0.0888888888888889  0.0000000000000000 B
   0.5481481481481509  0.0962962962962962  0.0000000000000000 B
   0.0518518518518576  0.1037037037037036  0.0000000000000000 B
   0.5555555555555571  0.1111111111111110  0.0000000000000000 B
   0.0592592592592638  0.1185185185185185  0.0000000000000000 B
   0.1259259259259338  0.2518518518518518  0.0000000000000000 B
   0.5629629629629633  0.1259259259259259  0.0000000000000000 B
   0.5703703703703695  0.1407407407407407  0.0000000000000000 B
   0.0740740740740762  0.1481481481481481  0.0000000000000000 B
   0.5777777777777757  0.1555555555555556  0.0000000000000000 B
   0.0814814814814824  0.1629629629629630  0.0000000000000000 B
   0.5851851851851890  0.1703703703703703  0.0000000000000000 B
   0.0888888888888957  0.1777777777777777  0.0000000000000000 B
   0.5925925925925952  0.1851851851851851  0.0000000000000000 B
   0.0962962962963019  0.1925925925925925  0.0000000000000000 B
   0.6000000000000014  0.2000000000000000  0.0000000000000000 B
   0.1037037037037081  0.2074074074074074  0.0000000000000000 B
   0.6074074074074076  0.2148148148148148  0.0000000000000000 B
   0.1111111111111143  0.2222222222222222  0.0000000000000000 B
   0.6148148148148138  0.2296296296296296  0.0000000000000000 B
   0.1185185185185205  0.2370370370370370  0.0000000000000000 B
   0.0666666666666700  0.1333333333333333  0.0000000000000000 B
   0.0074074074074133  0.0148148148148147  0.0000000000000000 B
   0.2518518518518533  0.5037037037037038  0.0000000000000000 B
   0.2592592592592595  0.5185185185185185  0.0000000000000000 B
   0.8888888888888893  0.7777777777777778  0.0000000000000000 B
   0.3925925925925924  0.7851851851851852  0.0000000000000000 B
   0.8962962962962973  0.7925925925925925  0.0000000000000000 B
   0.4000000000000004  0.8000000000000000  0.0000000000000000 B
   0.9037037037037035  0.8074074074074074  0.0000000000000000 B
   0.4074074074074083  0.8148148148148148  0.0000000000000000 B
   0.9111111111111114  0.8222222222222222  0.0000000000000000 B
   0.4148148148148145  0.8296296296296296  0.0000000000000000 B
   0.9185185185185194  0.8370370370370370  0.0000000000000000 B
   0.4222222222222225  0.8444444444444444  0.0000000000000000 B
   0.9259259259259256  0.8518518518518519  0.0000000000000000 B
   0.4296296296296305  0.8592592592592593  0.0000000000000000 B
   0.9333333333333336  0.8666666666666667  0.0000000000000000 B
   0.4370370370370384  0.8740740740740740  0.0000000000000000 B
   0.3851851851851844  0.7703703703703704  0.0000000000000000 B
   0.9407407407407407  0.8814814814814815  0.0000000000000000 B
   0.9481481481481486  0.8962962962962963  0.0000000000000000 B
   0.4518518518518517  0.9037037037037037  0.0000000000000000 B
   0.9555555555555557  0.9111111111111111  0.0000000000000000 B
   0.4592592592592597  0.9185185185185185  0.0000000000000000 B
   0.9629629629629628  0.9259259259259259  0.0000000000000000 B
   0.4666666666666668  0.9333333333333333  0.0000000000000000 B
   0.9703703703703703  0.9407407407407408  0.0000000000000000 B
   0.4740740740740743  0.9481481481481482  0.0000000000000000 B
   0.9777777777777779  0.9555555555555556  0.0000000000000000 B
   0.4814814814814814  0.9629629629629630  0.0000000000000000 B
   0.9851851851851852  0.9703703703703703  0.0000000000000000 B
   0.4888888888888889  0.9777777777777777  0.0000000000000000 B
   0.9925925925925926  0.9851851851851852  0.0000000000000000 B
   0.4962962962962963  0.9925925925925926  0.0000000000000000 B
   0.4444444444444446  0.8888888888888888  0.0000000000000000 B
   0.7555555555555600  0.5111111111111111  0.0000000000000000 B
   0.8814814814814813  0.7629629629629630  0.0000000000000000 B
   0.8740740740740769  0.7481481481481481  0.0000000000000000 B
   0.7629629629629626  0.5259259259259259  0.0000000000000000 B
   0.2666666666666657  0.5333333333333333  0.0000000000000000 B
   0.7703703703703688  0.5407407407407407  0.0000000000000000 B
   0.2740740740740755  0.5481481481481481  0.0000000000000000 B
   0.7777777777777786  0.5555555555555556  0.0000000000000000 B
   0.2814814814814817  0.5629629629629629  0.0000000000000000 B
   0.7851851851851848  0.5703703703703704  0.0000000000000000 B
   0.2888888888888879  0.5777777777777777  0.0000000000000000 B
   0.7925925925925945  0.5851851851851851  0.0000000000000000 B
   0.2962962962962976  0.5925925925925926  0.0000000000000000 B
   0.8000000000000007  0.6000000000000000  0.0000000000000000 B
   0.3037037037037038  0.6074074074074074  0.0000000000000000 B
   0.8074074074074069  0.6148148148148148  0.0000000000000000 B
   0.3111111111111100  0.6222222222222222  0.0000000000000000 B
   0.3777777777777800  0.7555555555555555  0.0000000000000000 B
   0.8148148148148167  0.6296296296296295  0.0000000000000000 B
   0.8222222222222229  0.6444444444444444  0.0000000000000000 B
   0.3259259259259260  0.6518518518518519  0.0000000000000000 B
   0.8296296296296291  0.6592592592592592  0.0000000000000000 B
   0.3333333333333357  0.6666666666666666  0.0000000000000000 B
   0.8370370370370388  0.6740740740740740  0.0000000000000000 B
   0.3407407407407419  0.6814814814814815  0.0000000000000000 B
   0.8444444444444450  0.6888888888888889  0.0000000000000000 B
   0.3481481481481481  0.6962962962962963  0.0000000000000000 B
   0.8518518518518512  0.7037037037037037  0.0000000000000000 B
   0.3555555555555578  0.7111111111111110  0.0000000000000000 B
   0.8592592592592609  0.7185185185185186  0.0000000000000000 B
   0.3629629629629640  0.7259259259259259  0.0000000000000000 B
   0.8666666666666671  0.7333333333333334  0.0000000000000000 B
   0.3703703703703702  0.7407407407407407  0.0000000000000000 B
   0.3185185185185198  0.6370370370370371  0.0000000000000000 B
   0.5037037037037067  0.0074074074074074  0.0000000000000000 B
