B134
 1.000000
    -8.5000000000000000    2.9444863727840129   -0.0000000000000000
    16.1500000000000057   33.8615932870159781   -0.0000000000000000
    -0.0000000000000000   -0.0000000000000000  -10.8800000000000008
B
134
Direct
   0.0000000000000000  0.0000000000000000  0.0000000000000000 B
   0.7985074626865849  0.1044776119403021  0.0000000000000000 B
   0.9552238805970337  0.1343283582089589  0.0000000000000000 B
   0.1119402985074824  0.1641791044776157  0.0000000000000000 B
   0.2686567164179277  0.1940298507462721  0.0000000000000000 B
   0.4253731343283746  0.2238805970149289  0.0000000000000000 B
   0.5820895522388234  0.2537313432835857  0.0000000000000000 B
   0.7388059701492722  0.2835820895522421  0.0000000000000000 B
   0.8955223880597192  0.3134328358208989  0.0000000000000000 B
   0.0522388059701644  0.3432835820895552  0.0000000000000000 B
   0.2089552238806132  0.3731343283582120  0.0000000000000000 B
   0.3656716417910619  0.4029850746268688  0.0000000000000000 B
   0.5223880597015089  0.4328358208955256  0.0000000000000000 B
   0.6791044776119577  0.4626865671641824  0.0000000000000000 B
   0.8358208955224029  0.4925373134328388  0.0000000000000000 B
   0.9925373134328517  0.5223880597014956  0.0000000000000000 B
   0.1492537313432987  0.5522388059701524  0.0000000000000000 B
   0.3059701492537474  0.5820895522388092  0.0000000000000000 B
   0.4626865671641944  0.6119402985074660  0.0000000000000000 B
   0.6194029850746414  0.6417910447761219  0.0000000000000000 B
   0.7761194029850884  0.6716417910447787  0.0000000000000000 B
   0.9328358208955372  0.7014925373134355  0.0000000000000000 B
   0.0895522388059842  0.7313432835820923  0.0000000000000000 B
   0.2462686567164329  0.7611940298507491  0.0000000000000000 B
   0.4029850746268782  0.7910447761194055  0.0000000000000000 B
   0.5597014925373269  0.8208955223880623  0.0000000000000000 B
   0.7164179104477739  0.8507462686567191  0.0000000000000000 B
   0.8731343283582227  0.8805970149253759  0.0000000000000000 B
   0.0298507462686715  0.9104477611940327  0.0000000000000000 B
   0.1865671641791167  0.9402985074626891  0.0000000000000000 B
   0.6417910447761379  0.0746268656716453  0.0000000000000000 B
   0.4850746268656891  0.0447761194029885  0.0000000000000000 B
   0.3283582089552439  0.0149253731343322  0.0000000000000000 B
   0.1716417910447952  0.9850746268656754  0.0000000000000000 B
   0.4701492537313676  0.0895522388059753  0.0000000000000000 B
   0.6268656716418164  0.1194029850746317  0.0000000000000000 B
   0.7835820895522616  0.1492537313432885  0.0000000000000000 B
   0.9402985074627104  0.1791044776119453  0.0000000000000000 B
   0.0970149253731591  0.2089552238806016  0.0000000000000000 B
   0.2537313432836079  0.2388059701492584  0.0000000000000000 B
   0.4104477611940531  0.2686567164179148  0.0000000000000000 B
   0.5671641791045019  0.2985074626865716  0.0000000000000000 B
   0.7238805970149471  0.3283582089552284  0.0000000000000000 B
   0.8805970149253959  0.3582089552238852  0.0000000000000000 B
   0.0373134328358447  0.3880597014925420  0.0000000000000000 B
   0.1940298507462899  0.4179104477611983  0.0000000000000000 B
   0.3507462686567386  0.4477611940298551  0.0000000000000000 B
   0.5074626865671874  0.4776119402985119  0.0000000000000000 B
   0.3432835820895637  0.9701492537313459  0.0000000000000000 B
   0.6641791044776326  0.5074626865671688  0.0000000000000000 B
   0.9776119402985266  0.5671641791044815  0.0000000000000000 B
   0.1343283582089754  0.5970149253731383  0.0000000000000000 B
   0.2910447761194241  0.6268656716417951  0.0000000000000000 B
   0.4477611940298729  0.6567164179104519  0.0000000000000000 B
   0.6044776119403217  0.6865671641791087  0.0000000000000000 B
   0.7611940298507669  0.7164179104477650  0.0000000000000000 B
   0.9179104477612157  0.7462686567164218  0.0000000000000000 B
   0.0746268656716609  0.7761194029850786  0.0000000000000000 B
   0.2313432835821096  0.8059701492537354  0.0000000000000000 B
   0.3880597014925584  0.8358208955223922  0.0000000000000000 B
   0.5447761194030072  0.8656716417910491  0.0000000000000000 B
   0.7014925373134524  0.8955223880597054  0.0000000000000000 B
   0.8582089552239012  0.9253731343283618  0.0000000000000000 B
   0.0149253731343482  0.9552238805970186  0.0000000000000000 B
   0.8208955223880814  0.5373134328358256  0.0000000000000000 B
   0.5000000000000124  0.0000000000000024  0.0000000000000000 B
   0.6567164179104612  0.0298507462686592  0.0000000000000000 B
   0.8134328358209082  0.0597014925373158  0.0000000000000000 B
   0.2985074626865725  0.1044776119402996  0.0000000000000000 B
   0.4552238805970203  0.1343283582089564  0.0000000000000000 B
   0.6119402985074682  0.1641791044776130  0.0000000000000000 B
   0.7686567164179152  0.1940298507462697  0.0000000000000000 B
   0.9253731343283631  0.2238805970149264  0.0000000000000000 B
   0.0820895522388110  0.2537313432835830  0.0000000000000000 B
   0.2388059701492584  0.2835820895522397  0.0000000000000000 B
   0.3955223880597059  0.3134328358208964  0.0000000000000000 B
   0.5522388059701533  0.3432835820895530  0.0000000000000000 B
   0.7089552238806007  0.3731343283582097  0.0000000000000000 B
   0.8656716417910486  0.4029850746268665  0.0000000000000000 B
   0.0223880597014960  0.4328358208955231  0.0000000000000000 B
   0.1791044776119435  0.4626865671641798  0.0000000000000000 B
   0.3358208955223909  0.4925373134328365  0.0000000000000000 B
   0.1417910447761255  0.0746268656716429  0.0000000000000000 B
   0.4925373134328388  0.5223880597014932  0.0000000000000000 B
   0.8059701492537341  0.5820895522388065  0.0000000000000000 B
   0.9626865671641816  0.6119402985074631  0.0000000000000000 B
   0.1194029850746292  0.6417910447761199  0.0000000000000000 B
   0.2761194029850766  0.6716417910447765  0.0000000000000000 B
   0.4328358208955243  0.7014925373134333  0.0000000000000000 B
   0.5895522388059717  0.7313432835820899  0.0000000000000000 B
   0.7462686567164194  0.7611940298507466  0.0000000000000000 B
   0.9029850746268671  0.7910447761194033  0.0000000000000000 B
   0.0597014925373146  0.8208955223880600  0.0000000000000000 B
   0.2164179104477622  0.8507462686567167  0.0000000000000000 B
   0.3731343283582097  0.8805970149253732  0.0000000000000000 B
   0.5298507462686572  0.9104477611940299  0.0000000000000000 B
   0.6865671641791049  0.9402985074626866  0.0000000000000000 B
   0.8432835820895525  0.9701492537313433  0.0000000000000000 B
   0.6492537313432862  0.5522388059701497  0.0000000000000000 B
   0.3134328358209224  0.0597014925373185  0.0000000000000000 B
   0.9850746268656776  0.0447761194029863  0.0000000000000000 B
   0.6716417910447818  0.9850746268656729  0.0000000000000000 B
   0.9701492537313552  0.0895522388059726  0.0000000000000000 B
   0.1268656716418040  0.1194029850746292  0.0000000000000000 B
   0.2835820895522509  0.1492537313432858  0.0000000000000000 B
   0.4402985074626979  0.1791044776119426  0.0000000000000000 B
   0.5970149253731449  0.2089552238805992  0.0000000000000000 B
   0.7537313432835937  0.2388059701492560  0.0000000000000000 B
   0.9104477611940407  0.2686567164179128  0.0000000000000000 B
   0.0671641791044877  0.2985074626865691  0.0000000000000000 B
   0.2238805970149365  0.3283582089552259  0.0000000000000000 B
   0.3805970149253834  0.3582089552238825  0.0000000000000000 B
   0.5373134328358304  0.3880597014925393  0.0000000000000000 B
   0.6940298507462792  0.4179104477611961  0.0000000000000000 B
   0.8507462686567262  0.4477611940298527  0.0000000000000000 B
   0.0074626865671741  0.4776119402985093  0.0000000000000000 B
   0.8283582089552306  0.0149253731343296  0.0000000000000000 B
   0.1641791044776220  0.5074626865671661  0.0000000000000000 B
   0.4776119402985168  0.5671641791044795  0.0000000000000000 B
   0.6343283582089638  0.5970149253731361  0.0000000000000000 B
   0.7910447761194117  0.6268656716417929  0.0000000000000000 B
   0.9477611940298596  0.6567164179104494  0.0000000000000000 B
   0.1044776119403066  0.6865671641791060  0.0000000000000000 B
   0.2611940298507545  0.7164179104477628  0.0000000000000000 B
   0.4179104477612015  0.7462686567164194  0.0000000000000000 B
   0.5746268656716493  0.7761194029850762  0.0000000000000000 B
   0.7313432835820972  0.8059701492537330  0.0000000000000000 B
   0.8880597014925442  0.8358208955223894  0.0000000000000000 B
   0.0447761194029921  0.8656716417910462  0.0000000000000000 B
   0.2014925373134391  0.8955223880597027  0.0000000000000000 B
   0.3582089552238870  0.9253731343283595  0.0000000000000000 B
   0.5149253731343357  0.9552238805970164  0.0000000000000000 B
   0.3208955223880690  0.5373134328358227  0.0000000000000000 B
   0.1567164179104736  0.0298507462686617  0.0000000000000000 B
