B122
 1.000000
     5.9500000000000171    4.4167295591759910    0.0000000000000000
   -25.5000000000000142   32.3893501006240001    0.0000000000000000
     0.0000000000000000    0.0000000000000000   10.8800000000000008
B
122
Direct
   0.0000000000000000  0.0000000000000000  0.0000000000000000 B
   0.8852459016393448  0.6065573770491812  0.0000000000000000 B
   0.8524590163934431  0.5655737704918038  0.0000000000000000 B
   0.8196721311475414  0.5245901639344268  0.0000000000000000 B
   0.7868852459016398  0.4836065573770498  0.0000000000000000 B
   0.7540983606557381  0.4426229508196728  0.0000000000000000 B
   0.7213114754098369  0.4016393442622963  0.0000000000000000 B
   0.6885245901639352  0.3606557377049189  0.0000000000000000 B
   0.6557377049180335  0.3196721311475419  0.0000000000000000 B
   0.6229508196721318  0.2786885245901649  0.0000000000000000 B
   0.5901639344262302  0.2377049180327879  0.0000000000000000 B
   0.5573770491803285  0.1967213114754105  0.0000000000000000 B
   0.5245901639344268  0.1557377049180335  0.0000000000000000 B
   0.9180327868852465  0.6475409836065582  0.0000000000000000 B
   0.4918032786885251  0.1147540983606565  0.0000000000000000 B
   0.4262295081967218  0.0327868852459021  0.0000000000000000 B
   0.3934426229508201  0.9918032786885251  0.0000000000000000 B
   0.3606557377049184  0.9508196721311482  0.0000000000000000 B
   0.3278688524590168  0.9098360655737707  0.0000000000000000 B
   0.2950819672131155  0.8688524590163942  0.0000000000000000 B
   0.2622950819672139  0.8278688524590172  0.0000000000000000 B
   0.2295081967213122  0.7868852459016402  0.0000000000000000 B
   0.1967213114754105  0.7459016393442632  0.0000000000000000 B
   0.1639344262295088  0.7049180327868858  0.0000000000000000 B
   0.1311475409836071  0.6639344262295088  0.0000000000000000 B
   0.0983606557377055  0.6229508196721318  0.0000000000000000 B
   0.0655737704918038  0.5819672131147549  0.0000000000000000 B
   0.4590163934426235  0.0737704918032791  0.0000000000000000 B
   0.9508196721311482  0.6885245901639352  0.0000000000000000 B
   0.9836065573770498  0.7295081967213122  0.0000000000000000 B
   0.0163934426229519  0.7704918032786896  0.0000000000000000 B
   0.9016393442622963  0.8770491803278704  0.0000000000000000 B
   0.8688524590163946  0.8360655737704930  0.0000000000000000 B
   0.8360655737704930  0.7950819672131155  0.0000000000000000 B
   0.8032786885245913  0.7540983606557390  0.0000000000000000 B
   0.7704918032786896  0.7131147540983616  0.0000000000000000 B
   0.7377049180327879  0.6721311475409850  0.0000000000000000 B
   0.7049180327868863  0.6311475409836076  0.0000000000000000 B
   0.6721311475409846  0.5901639344262302  0.0000000000000000 B
   0.6393442622950829  0.5491803278688536  0.0000000000000000 B
   0.6065573770491812  0.5081967213114762  0.0000000000000000 B
   0.5737704918032795  0.4672131147540988  0.0000000000000000 B
   0.5409836065573783  0.4262295081967222  0.0000000000000000 B
   0.5081967213114766  0.3852459016393457  0.0000000000000000 B
   0.4754098360655750  0.3442622950819683  0.0000000000000000 B
   0.4426229508196733  0.3032786885245908  0.0000000000000000 B
   0.4098360655737716  0.2622950819672143  0.0000000000000000 B
   0.3770491803278699  0.2213114754098369  0.0000000000000000 B
   0.3442622950819683  0.1803278688524603  0.0000000000000000 B
   0.3114754098360666  0.1393442622950829  0.0000000000000000 B
   0.2786885245901649  0.0983606557377055  0.0000000000000000 B
   0.2459016393442632  0.0573770491803289  0.0000000000000000 B
   0.2131147540983616  0.0163934426229515  0.0000000000000000 B
   0.1803278688524599  0.9754098360655745  0.0000000000000000 B
   0.1475409836065582  0.9344262295081975  0.0000000000000000 B
   0.1147540983606570  0.8934426229508210  0.0000000000000000 B
   0.0819672131147553  0.8524590163934436  0.0000000000000000 B
   0.0491803278688536  0.8114754098360666  0.0000000000000000 B
   0.0327868852459021  0.5409836065573774  0.0000000000000000 B
   0.0000000000000004  0.5000000000000004  0.0000000000000000 B
   0.9672131147540990  0.4590163934426235  0.0000000000000000 B
   0.9344262295081973  0.4180327868852465  0.0000000000000000 B
   0.8852459016393446  0.1065573770491806  0.0000000000000000 B
   0.8524590163934429  0.0655737704918036  0.0000000000000000 B
   0.8196721311475412  0.0245901639344264  0.0000000000000000 B
   0.7868852459016396  0.9836065573770494  0.0000000000000000 B
   0.7540983606557380  0.9426229508196724  0.0000000000000000 B
   0.7213114754098362  0.9016393442622953  0.0000000000000000 B
   0.6885245901639345  0.8606557377049182  0.0000000000000000 B
   0.6557377049180330  0.8196721311475412  0.0000000000000000 B
   0.6229508196721313  0.7786885245901641  0.0000000000000000 B
   0.5901639344262296  0.7377049180327870  0.0000000000000000 B
   0.5573770491803280  0.6967213114754101  0.0000000000000000 B
   0.5245901639344264  0.6557377049180330  0.0000000000000000 B
   0.4918032786885247  0.6147540983606559  0.0000000000000000 B
   0.4590163934426231  0.5737704918032788  0.0000000000000000 B
   0.4262295081967215  0.5327868852459018  0.0000000000000000 B
   0.3934426229508198  0.4918032786885247  0.0000000000000000 B
   0.3606557377049181  0.4508196721311477  0.0000000000000000 B
   0.3278688524590165  0.4098360655737706  0.0000000000000000 B
   0.2950819672131148  0.3688524590163935  0.0000000000000000 B
   0.2622950819672132  0.3278688524590165  0.0000000000000000 B
   0.2295081967213115  0.2868852459016394  0.0000000000000000 B
   0.1967213114754099  0.2459016393442623  0.0000000000000000 B
   0.1639344262295082  0.2049180327868853  0.0000000000000000 B
   0.1311475409836066  0.1639344262295082  0.0000000000000000 B
   0.0983606557377049  0.1229508196721312  0.0000000000000000 B
   0.0655737704918033  0.0819672131147541  0.0000000000000000 B
   0.0327868852459016  0.0409836065573771  0.0000000000000000 B
   0.9180327868852461  0.1475409836065575  0.0000000000000000 B
   0.9344262295081980  0.9180327868852469  0.0000000000000000 B
   0.9508196721311478  0.1885245901639347  0.0000000000000000 B
   0.0163934426229511  0.2704918032786887  0.0000000000000000 B
   0.9016393442622956  0.3770491803278695  0.0000000000000000 B
   0.8688524590163940  0.3360655737704925  0.0000000000000000 B
   0.8360655737704923  0.2950819672131151  0.0000000000000000 B
   0.8032786885245906  0.2540983606557381  0.0000000000000000 B
   0.7704918032786892  0.2131147540983611  0.0000000000000000 B
   0.7377049180327875  0.1721311475409841  0.0000000000000000 B
   0.7049180327868858  0.1311475409836071  0.0000000000000000 B
   0.6721311475409841  0.0901639344262302  0.0000000000000000 B
   0.6393442622950825  0.0491803278688527  0.0000000000000000 B
   0.6065573770491808  0.0081967213114758  0.0000000000000000 B
   0.5737704918032791  0.9672131147540988  0.0000000000000000 B
   0.5409836065573776  0.9262295081967218  0.0000000000000000 B
   0.5081967213114760  0.8852459016393448  0.0000000000000000 B
   0.4754098360655741  0.8442622950819676  0.0000000000000000 B
   0.4426229508196724  0.8032786885245906  0.0000000000000000 B
   0.4098360655737707  0.7622950819672134  0.0000000000000000 B
   0.3770491803278690  0.7213114754098364  0.0000000000000000 B
   0.3442622950819676  0.6803278688524594  0.0000000000000000 B
   0.3114754098360659  0.6393442622950825  0.0000000000000000 B
   0.2786885245901642  0.5983606557377052  0.0000000000000000 B
   0.2459016393442626  0.5573770491803283  0.0000000000000000 B
   0.2131147540983609  0.5163934426229511  0.0000000000000000 B
   0.1803278688524592  0.4754098360655741  0.0000000000000000 B
   0.1475409836065578  0.4344262295081971  0.0000000000000000 B
   0.1147540983606561  0.3934426229508201  0.0000000000000000 B
   0.0819672131147544  0.3524590163934429  0.0000000000000000 B
   0.0491803278688527  0.3114754098360659  0.0000000000000000 B
   0.9836065573770495  0.2295081967213117  0.0000000000000000 B
   0.9672131147540997  0.9590163934426243  0.0000000000000000 B
