B35
 1.000000
     1.7000000000000008   -5.8880000000000008   -0.0000000000000000
   -14.4500000000000028   -1.4719999999999942   -0.0000000000000000
    -0.0000000000000000   -0.0000000000000000  -12.0000000000000053
B
35
Direct
   0.2571428563714285  0.9714285745142858  0.0000000000000000 B
   0.1428571420857132  0.4285714316571430  0.0000000000000000 B
   0.3999999992285712  0.4000000030857144  0.0000000000000000 B
   0.6571428563714283  0.3714285745142858  0.0000000000000000 B
   0.9142857135142854  0.3428571459428572  0.0000000000000000 B
   0.1714285706571426  0.3142857173714286  0.0000000000000000 B
   0.4285714277999997  0.2857142888000000  0.0000000000000000 B
   0.8857142849428561  0.4571428602285715  0.0000000000000000 B
   0.6857142849428568  0.2571428602285715  0.0000000000000000 B
   0.1999999992285701  0.2000000030857144  0.0000000000000000 B
   0.4571428563714273  0.1714285745142858  0.0000000000000000 B
   0.7142857135142853  0.1428571459428573  0.0000000000000000 B
   0.9714285706571424  0.1142857173714287  0.0000000000000000 B
   0.2285714277999986  0.0857142888000001  0.0000000000000000 B
   0.4857142849428566  0.0571428602285715  0.0000000000000000 B
   0.9428571420857139  0.2285714316571429  0.0000000000000000 B
   0.7428571420857146  0.0285714316571429  0.0000000000000000 B
   0.6285714277999999  0.4857142888000000  0.0000000000000000 B
   0.1142857135142856  0.5428571459428573  0.0000000000000000 B
   0.5142857135142856  0.9428571459428572  0.0000000000000000 B
   0.7714285706571428  0.9142857173714286  0.0000000000000000 B
   0.0285714278000000  0.8857142888000000  0.0000000000000000 B
   0.2857142849428569  0.8571428602285714  0.0000000000000000 B
   0.5428571420857142  0.8285714316571429  0.0000000000000000 B
   0.7999999992285713  0.8000000030857143  0.0000000000000000 B
   0.3714285706571427  0.5142857173714286  0.0000000000000000 B
   0.0571428563714282  0.7714285745142857  0.0000000000000000 B
   0.5714285706571425  0.7142857173714287  0.0000000000000000 B
   0.8285714277999996  0.6857142888000001  0.0000000000000000 B
   0.0857142849428567  0.6571428602285715  0.0000000000000000 B
   0.3428571420857138  0.6285714316571429  0.0000000000000000 B
   0.5999999992285714  0.6000000030857143  0.0000000000000000 B
   0.8571428563714281  0.5714285745142857  0.0000000000000000 B
   0.3142857135142858  0.7428571459428572  0.0000000000000000 B
   0.9999999992285709  0.0000000030857144  0.0000000000000000 B
