B107
 1.000000
     7.6499999999999915    7.3612159319600039    0.0000000000000000
   -19.5499999999999972   16.1946750503120143    0.0000000000000000
     0.0000000000000000    0.0000000000000000   10.8800000000000008
B
107
Direct
   0.0000000000000000  0.0000000000000000  0.0000000000000000 B
   0.3177570093457920  0.0373831775700912  0.0000000000000000 B
   0.2616822429906520  0.9719626168224273  0.0000000000000000 B
   0.2056074766355120  0.9065420560747643  0.0000000000000000 B
   0.1495327102803721  0.8411214953271005  0.0000000000000000 B
   0.0934579439252312  0.7757009345794375  0.0000000000000000 B
   0.0373831775700912  0.7102803738317736  0.0000000000000000 B
   0.9813084112149513  0.6448598130841106  0.0000000000000000 B
   0.9252336448598113  0.5794392523364467  0.0000000000000000 B
   0.8691588785046709  0.5140186915887828  0.0000000000000000 B
   0.8130841121495309  0.4485981308411198  0.0000000000000000 B
   0.7570093457943905  0.3831775700934559  0.0000000000000000 B
   0.7009345794392505  0.3177570093457929  0.0000000000000000 B
   0.6448598130841101  0.2523364485981290  0.0000000000000000 B
   0.5887850467289701  0.1869158878504651  0.0000000000000000 B
   0.5327102803738297  0.1214953271028021  0.0000000000000000 B
   0.4766355140186898  0.0560747663551382  0.0000000000000000 B
   0.4205607476635498  0.9906542056074747  0.0000000000000000 B
   0.3644859813084094  0.9252336448598113  0.0000000000000000 B
   0.3084112149532694  0.8598130841121479  0.0000000000000000 B
   0.2523364485981290  0.7943925233644840  0.0000000000000000 B
   0.1962616822429890  0.7289719626168205  0.0000000000000000 B
   0.1401869158878486  0.6635514018691571  0.0000000000000000 B
   0.0841121495327086  0.5981308411214936  0.0000000000000000 B
   0.3738317757009328  0.1028037383177551  0.0000000000000000 B
   0.0280373831775682  0.5327102803738302  0.0000000000000000 B
   0.4299065420560728  0.1682242990654181  0.0000000000000000 B
   0.5420560747663528  0.2990654205607450  0.0000000000000000 B
   0.8317757009345765  0.8037383177570057  0.0000000000000000 B
   0.7757009345794357  0.7383177570093427  0.0000000000000000 B
   0.7196261682242957  0.6728971962616788  0.0000000000000000 B
   0.6635514018691557  0.6074766355140158  0.0000000000000000 B
   0.6074766355140158  0.5420560747663519  0.0000000000000000 B
   0.5514018691588749  0.4766355140186880  0.0000000000000000 B
   0.4953271028037349  0.4112149532710250  0.0000000000000000 B
   0.4392523364485950  0.3457943925233611  0.0000000000000000 B
   0.3831775700934550  0.2803738317756981  0.0000000000000000 B
   0.3271028037383150  0.2149532710280351  0.0000000000000000 B
   0.2710280373831750  0.1495327102803712  0.0000000000000000 B
   0.2149532710280351  0.0841121495327082  0.0000000000000000 B
   0.1588785046728951  0.0186915887850443  0.0000000000000000 B
   0.1028037383177542  0.9532710280373804  0.0000000000000000 B
   0.0467289719626143  0.8878504672897174  0.0000000000000000 B
   0.9906542056074743  0.8224299065420535  0.0000000000000000 B
   0.9345794392523343  0.7570093457943905  0.0000000000000000 B
   0.8785046728971944  0.6915887850467266  0.0000000000000000 B
   0.8224299065420535  0.6261682242990627  0.0000000000000000 B
   0.7663551401869135  0.5607476635513997  0.0000000000000000 B
   0.7102803738317736  0.4953271028037358  0.0000000000000000 B
   0.6542056074766336  0.4299065420560728  0.0000000000000000 B
   0.5981308411214927  0.3644859813084089  0.0000000000000000 B
   0.4859813084112128  0.2336448598130820  0.0000000000000000 B
   0.8878504672897165  0.8691588785046696  0.0000000000000000 B
   0.9719626168224282  0.4672897196261667  0.0000000000000000 B
   0.8598130841121479  0.3364485981308394  0.0000000000000000 B
   0.2897196261682238  0.5046728971962611  0.0000000000000000 B
   0.2336448598130836  0.4392523364485976  0.0000000000000000 B
   0.1775700934579434  0.3738317757009340  0.0000000000000000 B
   0.1214953271028032  0.3084112149532705  0.0000000000000000 B
   0.0654205607476630  0.2429906542056068  0.0000000000000000 B
   0.0093457943925228  0.1775700934579434  0.0000000000000000 B
   0.9532710280373827  0.1121495327102799  0.0000000000000000 B
   0.8971962616822425  0.0467289719626163  0.0000000000000000 B
   0.8411214953271023  0.9813084112149528  0.0000000000000000 B
   0.7850467289719621  0.9158878504672893  0.0000000000000000 B
   0.7289719626168221  0.8504672897196257  0.0000000000000000 B
   0.6728971962616819  0.7850467289719623  0.0000000000000000 B
   0.6168224299065418  0.7196261682242988  0.0000000000000000 B
   0.5607476635514016  0.6542056074766353  0.0000000000000000 B
   0.5046728971962614  0.5887850467289717  0.0000000000000000 B
   0.4485981308411213  0.5233644859813081  0.0000000000000000 B
   0.3925233644859811  0.4579439252336446  0.0000000000000000 B
   0.3364485981308409  0.3925233644859811  0.0000000000000000 B
   0.2803738317757008  0.3271028037383176  0.0000000000000000 B
   0.2242990654205606  0.2616822429906541  0.0000000000000000 B
   0.1682242990654205  0.1962616822429906  0.0000000000000000 B
   0.1121495327102803  0.1308411214953270  0.0000000000000000 B
   0.0560747663551402  0.0654205607476635  0.0000000000000000 B
   0.3457943925233637  0.5700934579439245  0.0000000000000000 B
   0.9158878504672883  0.4018691588785028  0.0000000000000000 B
   0.4018691588785039  0.6355140186915880  0.0000000000000000 B
   0.5140186915887841  0.7663551401869151  0.0000000000000000 B
   0.8037383177570079  0.2710280373831759  0.0000000000000000 B
   0.7476635514018675  0.2056074766355125  0.0000000000000000 B
   0.6915887850467275  0.1401869158878490  0.0000000000000000 B
   0.6355140186915875  0.0747663551401856  0.0000000000000000 B
   0.5794392523364476  0.0093457943925221  0.0000000000000000 B
   0.5233644859813071  0.9439252336448587  0.0000000000000000 B
   0.4672897196261672  0.8785046728971952  0.0000000000000000 B
   0.4112149532710268  0.8130841121495314  0.0000000000000000 B
   0.3551401869158868  0.7476635514018679  0.0000000000000000 B
   0.2990654205607464  0.6822429906542045  0.0000000000000000 B
   0.2429906542056064  0.6168224299065410  0.0000000000000000 B
   0.1869158878504664  0.5514018691588776  0.0000000000000000 B
   0.1308411214953260  0.4859813084112137  0.0000000000000000 B
   0.0747663551401860  0.4205607476635502  0.0000000000000000 B
   0.0186915887850456  0.3551401869158868  0.0000000000000000 B
   0.9626168224299056  0.2897196261682233  0.0000000000000000 B
   0.9065420560747655  0.2242990654205599  0.0000000000000000 B
   0.8504672897196253  0.1588785046728964  0.0000000000000000 B
   0.7943925233644851  0.0934579439252325  0.0000000000000000 B
   0.7383177570093449  0.0280373831775691  0.0000000000000000 B
   0.6822429906542047  0.9626168224299056  0.0000000000000000 B
   0.6261682242990645  0.8971962616822420  0.0000000000000000 B
   0.5700934579439243  0.8317757009345785  0.0000000000000000 B
   0.4579439252336441  0.7009345794392514  0.0000000000000000 B
   0.9439252336448565  0.9345794392523334  0.0000000000000000 B
