B107
 1.000000
    -9.3499999999999943   -7.3612159319600039   -0.0000000000000000
   -10.2000000000000011   20.6114046094880017   -0.0000000000000000
    -0.0000000000000000   -0.0000000000000000  -10.8800000000000008
B
107
Direct
   0.0000000000000000  0.0000000000000000  0.0000000000000000 B
   0.2803738317757010  0.2429906542056077  0.0000000000000000 B
   0.2897196261682243  0.3177570093457946  0.0000000000000000 B
   0.2990654205607477  0.3925233644859816  0.0000000000000000 B
   0.3084112149532711  0.4672897196261685  0.0000000000000000 B
   0.3177570093457944  0.5420560747663554  0.0000000000000000 B
   0.3271028037383178  0.6168224299065423  0.0000000000000000 B
   0.3364485981308412  0.6915887850467293  0.0000000000000000 B
   0.3457943925233645  0.7663551401869162  0.0000000000000000 B
   0.3551401869158879  0.8411214953271031  0.0000000000000000 B
   0.3644859813084113  0.9158878504672900  0.0000000000000000 B
   0.3738317757009346  0.9906542056074770  0.0000000000000000 B
   0.3831775700934580  0.0654205607476639  0.0000000000000000 B
   0.3925233644859814  0.1401869158878508  0.0000000000000000 B
   0.4018691588785047  0.2149532710280377  0.0000000000000000 B
   0.4112149532710281  0.2897196261682247  0.0000000000000000 B
   0.4205607476635514  0.3644859813084116  0.0000000000000000 B
   0.4299065420560748  0.4392523364485985  0.0000000000000000 B
   0.4392523364485982  0.5140186915887854  0.0000000000000000 B
   0.4485981308411215  0.5887850467289724  0.0000000000000000 B
   0.4579439252336449  0.6635514018691593  0.0000000000000000 B
   0.4672897196261683  0.7383177570093462  0.0000000000000000 B
   0.4766355140186916  0.8130841121495331  0.0000000000000000 B
   0.4859813084112150  0.8878504672897201  0.0000000000000000 B
   0.2710280373831776  0.1682242990654208  0.0000000000000000 B
   0.4953271028037384  0.9626168224299070  0.0000000000000000 B
   0.2616822429906542  0.0934579439252339  0.0000000000000000 B
   0.2429906542056075  0.9439252336448600  0.0000000000000000 B
   0.0280373831775702  0.2242990654205617  0.0000000000000000 B
   0.0373831775700936  0.2990654205607486  0.0000000000000000 B
   0.0467289719626169  0.3738317757009355  0.0000000000000000 B
   0.0560747663551403  0.4485981308411224  0.0000000000000000 B
   0.0654205607476637  0.5233644859813094  0.0000000000000000 B
   0.0747663551401870  0.5981308411214963  0.0000000000000000 B
   0.0841121495327104  0.6728971962616832  0.0000000000000000 B
   0.0934579439252338  0.7476635514018701  0.0000000000000000 B
   0.1028037383177571  0.8224299065420571  0.0000000000000000 B
   0.1121495327102804  0.8971962616822431  0.0000000000000000 B
   0.1214953271028038  0.9719626168224300  0.0000000000000000 B
   0.1308411214953271  0.0467289719626169  0.0000000000000000 B
   0.1401869158878505  0.1214953271028039  0.0000000000000000 B
   0.1495327102803738  0.1962616822429908  0.0000000000000000 B
   0.1588785046728972  0.2710280373831777  0.0000000000000000 B
   0.1682242990654206  0.3457943925233646  0.0000000000000000 B
   0.1775700934579439  0.4205607476635516  0.0000000000000000 B
   0.1869158878504673  0.4953271028037385  0.0000000000000000 B
   0.1962616822429907  0.5700934579439254  0.0000000000000000 B
   0.2056074766355140  0.6448598130841123  0.0000000000000000 B
   0.2149532710280374  0.7196261682242993  0.0000000000000000 B
   0.2242990654205608  0.7943925233644862  0.0000000000000000 B
   0.2336448598130841  0.8691588785046731  0.0000000000000000 B
   0.2523364485981309  0.0186915887850470  0.0000000000000000 B
   0.0186915887850468  0.1495327102803747  0.0000000000000000 B
   0.5046728971962617  0.0373831775700939  0.0000000000000000 B
   0.5233644859813085  0.1869158878504678  0.0000000000000000 B
   0.7850467289719626  0.2803738317757010  0.0000000000000000 B
   0.7943925233644860  0.3551401869158879  0.0000000000000000 B
   0.8037383177570093  0.4299065420560748  0.0000000000000000 B
   0.8130841121495327  0.5046728971962617  0.0000000000000000 B
   0.8224299065420561  0.5794392523364487  0.0000000000000000 B
   0.8317757009345794  0.6542056074766356  0.0000000000000000 B
   0.8411214953271028  0.7289719626168225  0.0000000000000000 B
   0.8504672897196262  0.8037383177570094  0.0000000000000000 B
   0.8598130841121495  0.8785046728971964  0.0000000000000000 B
   0.8691588785046729  0.9532710280373833  0.0000000000000000 B
   0.8785046728971962  0.0280373831775702  0.0000000000000000 B
   0.8878504672897196  0.1028037383177571  0.0000000000000000 B
   0.8971962616822430  0.1775700934579439  0.0000000000000000 B
   0.9065420560747663  0.2523364485981309  0.0000000000000000 B
   0.9158878504672897  0.3271028037383178  0.0000000000000000 B
   0.9252336448598131  0.4018691588785047  0.0000000000000000 B
   0.9345794392523364  0.4766355140186916  0.0000000000000000 B
   0.9439252336448598  0.5514018691588786  0.0000000000000000 B
   0.9532710280373832  0.6261682242990654  0.0000000000000000 B
   0.9626168224299065  0.7009345794392523  0.0000000000000000 B
   0.9719626168224299  0.7757009345794392  0.0000000000000000 B
   0.9813084112149533  0.8504672897196262  0.0000000000000000 B
   0.9906542056074766  0.9252336448598131  0.0000000000000000 B
   0.7757009345794392  0.2056074766355143  0.0000000000000000 B
   0.5140186915887851  0.1121495327102808  0.0000000000000000 B
   0.7663551401869160  0.1308411214953273  0.0000000000000000 B
   0.7476635514018692  0.9813084112149535  0.0000000000000000 B
   0.5327102803738318  0.2616822429906547  0.0000000000000000 B
   0.5420560747663552  0.3364485981308416  0.0000000000000000 B
   0.5514018691588786  0.4112149532710285  0.0000000000000000 B
   0.5607476635514019  0.4859813084112150  0.0000000000000000 B
   0.5700934579439252  0.5607476635514019  0.0000000000000000 B
   0.5794392523364487  0.6355140186915889  0.0000000000000000 B
   0.5887850467289719  0.7102803738317758  0.0000000000000000 B
   0.5981308411214954  0.7850467289719627  0.0000000000000000 B
   0.6074766355140186  0.8598130841121496  0.0000000000000000 B
   0.6168224299065421  0.9345794392523366  0.0000000000000000 B
   0.6261682242990654  0.0093457943925235  0.0000000000000000 B
   0.6355140186915889  0.0841121495327104  0.0000000000000000 B
   0.6448598130841121  0.1588785046728973  0.0000000000000000 B
   0.6542056074766356  0.2336448598130842  0.0000000000000000 B
   0.6635514018691588  0.3084112149532712  0.0000000000000000 B
   0.6728971962616823  0.3831775700934581  0.0000000000000000 B
   0.6822429906542056  0.4579439252336450  0.0000000000000000 B
   0.6915887850467290  0.5327102803738319  0.0000000000000000 B
   0.7009345794392523  0.6074766355140189  0.0000000000000000 B
   0.7102803738317758  0.6822429906542058  0.0000000000000000 B
   0.7196261682242990  0.7570093457943927  0.0000000000000000 B
   0.7289719626168225  0.8317757009345796  0.0000000000000000 B
   0.7383177570093458  0.9065420560747666  0.0000000000000000 B
   0.7570093457943925  0.0560747663551404  0.0000000000000000 B
   0.0093457943925235  0.0747663551401878  0.0000000000000000 B
