B19
 1.000000
     1.7000000000000004    0.0000000000000000    0.0000000000000000
    -0.8499999999999979   27.9680000000000000    0.0000000000000000
     0.0000000000000000    0.0000000000000000   12.0000000000000053
B
19
Direct
   0.0000000000000000  0.0000000000000000  0.0000000000000000 B
   0.4210526315789478  0.8421052631578947  0.0000000000000000 B
   0.8947368421052628  0.7894736842105263  0.0000000000000000 B
   0.3684210526315796  0.7368421052631579  0.0000000000000000 B
   0.8421052631578956  0.6842105263157894  0.0000000000000000 B
   0.3157894736842106  0.6315789473684210  0.0000000000000000 B
   0.7894736842105257  0.5789473684210527  0.0000000000000000 B
   0.2631578947368425  0.5263157894736842  0.0000000000000000 B
   0.9473684210526319  0.8947368421052631  0.0000000000000000 B
   0.7368421052631584  0.4736842105263158  0.0000000000000000 B
   0.6842105263157898  0.3684210526315789  0.0000000000000000 B
   0.1578947368421053  0.3157894736842105  0.0000000000000000 B
   0.6315789473684212  0.2631578947368421  0.0000000000000000 B
   0.1052631578947369  0.2105263157894737  0.0000000000000000 B
   0.5789473684210527  0.1578947368421053  0.0000000000000000 B
   0.0526315789473685  0.1052631578947368  0.0000000000000000 B
   0.5263157894736843  0.0526315789473684  0.0000000000000000 B
   0.2105263157894739  0.4210526315789473  0.0000000000000000 B
   0.4736842105263168  0.9473684210526315  0.0000000000000000 B
