B113
 1.000000
     1.7000000000000002    0.0000000000000000    0.0000000000000000
    -0.8499999999999943  166.3634800622959915    0.0000000000000000
     0.0000000000000000    0.0000000000000000   10.8800000000000008
B
113
Direct
   0.0000000000000000  0.0000000000000000  0.0000000000000000 B
   0.8584070796460139  0.7168141592920354  0.0000000000000000 B
   0.3539823008849581  0.7079646017699115  0.0000000000000000 B
   0.8495575221238951  0.6991150442477876  0.0000000000000000 B
   0.3451327433628322  0.6902654867256637  0.0000000000000000 B
   0.8407079646017763  0.6814159292035398  0.0000000000000000 B
   0.3362831858407134  0.6725663716814159  0.0000000000000000 B
   0.8318584070796433  0.6637168141592921  0.0000000000000000 B
   0.3274336283185804  0.6548672566371682  0.0000000000000000 B
   0.8230088495575245  0.6460176991150443  0.0000000000000000 B
   0.3185840707964616  0.6371681415929203  0.0000000000000000 B
   0.8141592920353986  0.6283185840707964  0.0000000000000000 B
   0.3628318584070769  0.7256637168141593  0.0000000000000000 B
   0.3097345132743357  0.6194690265486725  0.0000000000000000 B
   0.3008849557522097  0.6017699115044248  0.0000000000000000 B
   0.7964601769911468  0.5929203539823009  0.0000000000000000 B
   0.2920353982300838  0.5840707964601770  0.0000000000000000 B
   0.7876106194690280  0.5752212389380531  0.0000000000000000 B
   0.2831858407079650  0.5663716814159292  0.0000000000000000 B
   0.7787610619469021  0.5575221238938053  0.0000000000000000 B
   0.2743362831858427  0.5486725663716814  0.0000000000000000 B
   0.7699115044247833  0.5398230088495575  0.0000000000000000 B
   0.2654867256637203  0.5309734513274336  0.0000000000000000 B
   0.7610619469026538  0.5221238938053098  0.0000000000000000 B
   0.2566371681415909  0.5132743362831859  0.0000000000000000 B
   0.8053097345132798  0.6106194690265486  0.0000000000000000 B
   0.8672566371681398  0.7345132743362832  0.0000000000000000 B
   0.3716814159292028  0.7433628318584071  0.0000000000000000 B
   0.8761061946902657  0.7522123893805309  0.0000000000000000 B
   0.4867256637168182  0.9734513274336283  0.0000000000000000 B
   0.9823008849557553  0.9646017699115044  0.0000000000000000 B
   0.4778761061946923  0.9557522123893805  0.0000000000000000 B
   0.9734513274336294  0.9469026548672567  0.0000000000000000 B
   0.4690265486725664  0.9380530973451328  0.0000000000000000 B
   0.9646017699115035  0.9292035398230089  0.0000000000000000 B
   0.4601769911504405  0.9203539823008849  0.0000000000000000 B
   0.9557522123893847  0.9115044247787610  0.0000000000000000 B
   0.4513274336283217  0.9026548672566371  0.0000000000000000 B
   0.9469026548672588  0.8938053097345132  0.0000000000000000 B
   0.4424778761061958  0.8849557522123894  0.0000000000000000 B
   0.9380530973451329  0.8761061946902655  0.0000000000000000 B
   0.4336283185840699  0.8672566371681416  0.0000000000000000 B
   0.9292035398230070  0.8584070796460177  0.0000000000000000 B
   0.4247787610619440  0.8495575221238938  0.0000000000000000 B
   0.9203539823008882  0.8407079646017699  0.0000000000000000 B
   0.4159292035398252  0.8318584070796460  0.0000000000000000 B
   0.9115044247787623  0.8230088495575221  0.0000000000000000 B
   0.4070796460177064  0.8141592920353982  0.0000000000000000 B
   0.9026548672566364  0.8053097345132744  0.0000000000000000 B
   0.3982300884955734  0.7964601769911505  0.0000000000000000 B
   0.8938053097345104  0.7876106194690266  0.0000000000000000 B
   0.3893805309734546  0.7787610619469026  0.0000000000000000 B
   0.8849557522123916  0.7699115044247787  0.0000000000000000 B
   0.3805309734513287  0.7610619469026548  0.0000000000000000 B
   0.7522123893805315  0.5044247787610620  0.0000000000000000 B
   0.9911504424778741  0.9823008849557522  0.0000000000000000 B
   0.2477876106194685  0.4955752212389380  0.0000000000000000 B
   0.2389380530973462  0.4778761061946902  0.0000000000000000 B
   0.1061946902654860  0.2123893805309734  0.0000000000000000 B
   0.6017699115044266  0.2035398230088495  0.0000000000000000 B
   0.0973451327433636  0.1946902654867257  0.0000000000000000 B
   0.5929203539823007  0.1858407079646018  0.0000000000000000 B
   0.0884955752212395  0.1769911504424779  0.0000000000000000 B
   0.5840707964601783  0.1681415929203540  0.0000000000000000 B
   0.0796460176991154  0.1592920353982301  0.0000000000000000 B
   0.5752212389380524  0.1504424778761062  0.0000000000000000 B
   0.0707964601769913  0.1415929203539823  0.0000000000000000 B
   0.5663716814159301  0.1327433628318584  0.0000000000000000 B
   0.0619469026548671  0.1238938053097345  0.0000000000000000 B
   0.6106194690265490  0.2212389380530974  0.0000000000000000 B
   0.5575221238938051  0.1150442477876106  0.0000000000000000 B
   0.5486725663716818  0.0973451327433628  0.0000000000000000 B
   0.0442477876106198  0.0884955752212389  0.0000000000000000 B
   0.5398230088495577  0.0796460176991150  0.0000000000000000 B
   0.0353982300884956  0.0707964601769911  0.0000000000000000 B
   0.5309734513274336  0.0619469026548673  0.0000000000000000 B
   0.0265486725663715  0.0530973451327434  0.0000000000000000 B
   0.5221238938053099  0.0442477876106195  0.0000000000000000 B
   0.0176991150442478  0.0353982300884956  0.0000000000000000 B
   0.5132743362831858  0.0265486725663717  0.0000000000000000 B
   0.0088495575221239  0.0176991150442478  0.0000000000000000 B
   0.5044247787610620  0.0088495575221239  0.0000000000000000 B
   0.0530973451327430  0.1061946902654867  0.0000000000000000 B
   0.1150442477876101  0.2300884955752212  0.0000000000000000 B
   0.6194690265486731  0.2389380530973451  0.0000000000000000 B
   0.1238938053097343  0.2477876106194690  0.0000000000000000 B
   0.7345132743362832  0.4690265486725664  0.0000000000000000 B
   0.2300884955752203  0.4601769911504425  0.0000000000000000 B
   0.7256637168141609  0.4513274336283186  0.0000000000000000 B
   0.2212389380530979  0.4424778761061947  0.0000000000000000 B
   0.7168141592920350  0.4336283185840708  0.0000000000000000 B
   0.2123893805309720  0.4247787610619469  0.0000000000000000 B
   0.7079646017699126  0.4159292035398230  0.0000000000000000 B
   0.2035398230088532  0.4070796460176991  0.0000000000000000 B
   0.6991150442477867  0.3982300884955752  0.0000000000000000 B
   0.1946902654867273  0.3893805309734513  0.0000000000000000 B
   0.6902654867256643  0.3805309734513274  0.0000000000000000 B
   0.1858407079646014  0.3716814159292036  0.0000000000000000 B
   0.6814159292035384  0.3628318584070797  0.0000000000000000 B
   0.1769911504424790  0.3539823008849557  0.0000000000000000 B
   0.6725663716814161  0.3451327433628318  0.0000000000000000 B
   0.1681415929203567  0.3362831858407079  0.0000000000000000 B
   0.6637168141592902  0.3274336283185841  0.0000000000000000 B
   0.1592920353982308  0.3185840707964602  0.0000000000000000 B
   0.6548672566371678  0.3097345132743363  0.0000000000000000 B
   0.1504424778761049  0.3008849557522124  0.0000000000000000 B
   0.6460176991150419  0.2920353982300885  0.0000000000000000 B
   0.1415929203539825  0.2831858407079646  0.0000000000000000 B
   0.6371681415929213  0.2743362831858407  0.0000000000000000 B
   0.1327433628318602  0.2654867256637168  0.0000000000000000 B
   0.6283185840707954  0.2566371681415929  0.0000000000000000 B
   0.7433628318584091  0.4867256637168141  0.0000000000000000 B
   0.4955752212389370  0.9911504424778761  0.0000000000000000 B
