B147
 1.000000
    12.7500000000000000  -16.1946750503120143    0.0000000000000000
     7.6499999999999488   19.1391614230959988    0.0000000000000000
     0.0000000000000000    0.0000000000000000   10.8800000000000008
B
147
Direct
   0.0000000000000000  0.0000000000000000  0.0000000000000000 B
   0.9659863945578167  0.2789115646258513  0.0000000000000000 B
   0.8911564625850277  0.2925170068027221  0.0000000000000000 B
   0.8163265306122387  0.3061224489795928  0.0000000000000000 B
   0.7414965986394488  0.3197278911564636  0.0000000000000000 B
   0.6666666666666599  0.3333333333333344  0.0000000000000000 B
   0.5918367346938709  0.3469387755102051  0.0000000000000000 B
   0.0408163265306065  0.2653061224489806  0.0000000000000000 B
   0.5170068027210810  0.3605442176870759  0.0000000000000000 B
   0.3673469387755031  0.3877551020408176  0.0000000000000000 B
   0.2925170068027132  0.4013605442176884  0.0000000000000000 B
   0.2176870748299242  0.4149659863945592  0.0000000000000000 B
   0.1428571428571352  0.4285714285714299  0.0000000000000000 B
   0.0680272108843454  0.4421768707483007  0.0000000000000000 B
   0.9931972789115573  0.4557823129251712  0.0000000000000000 B
   0.4421768707482920  0.3741496598639467  0.0000000000000000 B
   0.1156462585033946  0.2517006802721100  0.0000000000000000 B
   0.1904761904761836  0.2380952380952392  0.0000000000000000 B
   0.2653061224489726  0.2244897959183685  0.0000000000000000 B
   0.3877551020408108  0.0204081632653070  0.0000000000000000 B
   0.3129251700680218  0.0340136054421778  0.0000000000000000 B
   0.2380952380952319  0.0476190476190486  0.0000000000000000 B
   0.1632653061224429  0.0612244897959193  0.0000000000000000 B
   0.0884353741496549  0.0748299319727899  0.0000000000000000 B
   0.0136054421768659  0.0884353741496606  0.0000000000000000 B
   0.9387755102040760  0.1020408163265314  0.0000000000000000 B
   0.8639455782312870  0.1156462585034022  0.0000000000000000 B
   0.7891156462584981  0.1292517006802731  0.0000000000000000 B
   0.7142857142857082  0.1428571428571439  0.0000000000000000 B
   0.6394557823129192  0.1564625850340147  0.0000000000000000 B
   0.5646258503401302  0.1700680272108854  0.0000000000000000 B
   0.4897959183673404  0.1836734693877562  0.0000000000000000 B
   0.4149659863945514  0.1972789115646270  0.0000000000000000 B
   0.3401360544217624  0.2108843537414977  0.0000000000000000 B
   0.9183673469387692  0.4693877551020420  0.0000000000000000 B
   0.4625850340135997  0.0068027210884363  0.0000000000000000 B
   0.8435374149659793  0.4829931972789128  0.0000000000000000 B
   0.6938775510204014  0.5102040816326543  0.0000000000000000 B
   0.1972789115646165  0.7823129251700696  0.0000000000000000 B
   0.1224489795918267  0.7959183673469403  0.0000000000000000 B
   0.0476190476190386  0.8095238095238111  0.0000000000000000 B
   0.9727891156462487  0.8231292517006819  0.0000000000000000 B
   0.8979591836734588  0.8367346938775526  0.0000000000000000 B
   0.8231292517006707  0.8503401360544232  0.0000000000000000 B
   0.2721088435374064  0.7687074829931988  0.0000000000000000 B
   0.7482993197278827  0.8639455782312939  0.0000000000000000 B
   0.5986394557823029  0.8911564625850357  0.0000000000000000 B
   0.5238095238095148  0.9047619047619064  0.0000000000000000 B
   0.4489795918367250  0.9183673469387772  0.0000000000000000 B
   0.3741496598639351  0.9319727891156480  0.0000000000000000 B
   0.2993197278911470  0.9455782312925187  0.0000000000000000 B
   0.2244897959183572  0.9591836734693895  0.0000000000000000 B
   0.6734693877550928  0.8775510204081649  0.0000000000000000 B
   0.3469387755101945  0.7551020408163280  0.0000000000000000 B
   0.4217687074829843  0.7414965986394573  0.0000000000000000 B
   0.4965986394557742  0.7278911564625865  0.0000000000000000 B
   0.6190476190476115  0.5238095238095251  0.0000000000000000 B
   0.5442176870748217  0.5374149659863958  0.0000000000000000 B
   0.4693877551020336  0.5510204081632666  0.0000000000000000 B
   0.3945578231292437  0.5646258503401373  0.0000000000000000 B
   0.3197278911564538  0.5782312925170081  0.0000000000000000 B
   0.2448979591836657  0.5918367346938789  0.0000000000000000 B
   0.1700680272108759  0.6054421768707496  0.0000000000000000 B
   0.0952380952380860  0.6190476190476204  0.0000000000000000 B
   0.0204081632652979  0.6326530612244914  0.0000000000000000 B
   0.9455782312925098  0.6462585034013619  0.0000000000000000 B
   0.8707482993197200  0.6598639455782327  0.0000000000000000 B
   0.7959183673469301  0.6734693877551035  0.0000000000000000 B
   0.7210884353741420  0.6870748299319742  0.0000000000000000 B
   0.6462585034013522  0.7006802721088450  0.0000000000000000 B
   0.5714285714285623  0.7142857142857157  0.0000000000000000 B
   0.7687074829931895  0.4965986394557835  0.0000000000000000 B
   0.1496598639455673  0.9727891156462602  0.0000000000000000 B
   0.5374149659863896  0.9931972789115655  0.0000000000000000 B
   0.6870748299319676  0.9659863945578240  0.0000000000000000 B
   0.5034013605442165  0.2721088435374152  0.0000000000000000 B
   0.4285714285714270  0.2857142857142860  0.0000000000000000 B
   0.3537414965986379  0.2993197278911567  0.0000000000000000 B
   0.2789115646258487  0.3129251700680275  0.0000000000000000 B
   0.2040816326530597  0.3265306122448982  0.0000000000000000 B
   0.1292517006802703  0.3401360544217690  0.0000000000000000 B
   0.5782312925170054  0.2585034013605444  0.0000000000000000 B
   0.0544217687074811  0.3537414965986398  0.0000000000000000 B
   0.9047619047619029  0.3809523809523813  0.0000000000000000 B
   0.8299319727891135  0.3945578231292520  0.0000000000000000 B
   0.7551020408163245  0.4081632653061228  0.0000000000000000 B
   0.6802721088435355  0.4217687074829936  0.0000000000000000 B
   0.6054421768707461  0.4353741496598643  0.0000000000000000 B
   0.5306122448979567  0.4489795918367351  0.0000000000000000 B
   0.9795918367346923  0.3673469387755105  0.0000000000000000 B
   0.6530612244897946  0.2448979591836737  0.0000000000000000 B
   0.7278911564625838  0.2312925170068029  0.0000000000000000 B
   0.8027210884353730  0.2176870748299322  0.0000000000000000 B
   0.9251700680272108  0.0136054421768708  0.0000000000000000 B
   0.8503401360544216  0.0272108843537415  0.0000000000000000 B
   0.7755102040816324  0.0408163265306123  0.0000000000000000 B
   0.7006802721088432  0.0544217687074830  0.0000000000000000 B
   0.6258503401360541  0.0680272108843538  0.0000000000000000 B
   0.5510204081632649  0.0816326530612246  0.0000000000000000 B
   0.4761904761904757  0.0952380952380953  0.0000000000000000 B
   0.4013605442176865  0.1088435374149661  0.0000000000000000 B
   0.3265306122448973  0.1224489795918368  0.0000000000000000 B
   0.2517006802721082  0.1360544217687076  0.0000000000000000 B
   0.1768707482993189  0.1496598639455784  0.0000000000000000 B
   0.1020408163265298  0.1632653061224491  0.0000000000000000 B
   0.0272108843537405  0.1768707482993199  0.0000000000000000 B
   0.9523809523809514  0.1904761904761906  0.0000000000000000 B
   0.8775510204081622  0.2040816326530614  0.0000000000000000 B
   0.4557823129251677  0.4625850340136058  0.0000000000000000 B
   0.6122448979591786  0.9795918367346947  0.0000000000000000 B
   0.3809523809523787  0.4761904761904766  0.0000000000000000 B
   0.2312925170067999  0.5034013605442181  0.0000000000000000 B
   0.7346938775510168  0.7755102040816333  0.0000000000000000 B
   0.6598639455782269  0.7891156462585041  0.0000000000000000 B
   0.5850340136054379  0.8027210884353748  0.0000000000000000 B
   0.5102040816326490  0.8163265306122457  0.0000000000000000 B
   0.4353741496598600  0.8299319727891163  0.0000000000000000 B
   0.3605442176870710  0.8435374149659871  0.0000000000000000 B
   0.8095238095238058  0.7619047619047625  0.0000000000000000 B
   0.2857142857142811  0.8571428571428579  0.0000000000000000 B
   0.1360544217687032  0.8843537414965994  0.0000000000000000 B
   0.0612244897959133  0.8979591836734702  0.0000000000000000 B
   0.9863945578231244  0.9115646258503409  0.0000000000000000 B
   0.9115646258503354  0.9251700680272116  0.0000000000000000 B
   0.8367346938775464  0.9387755102040825  0.0000000000000000 B
   0.7619047619047574  0.9523809523809532  0.0000000000000000 B
   0.2108843537414922  0.8707482993197286  0.0000000000000000 B
   0.8843537414965947  0.7482993197278918  0.0000000000000000 B
   0.9591836734693846  0.7346938775510210  0.0000000000000000 B
   0.0340136054421727  0.7210884353741503  0.0000000000000000 B
   0.1564625850340109  0.5170068027210889  0.0000000000000000 B
   0.0816326530612215  0.5306122448979597  0.0000000000000000 B
   0.0068027210884329  0.5442176870748303  0.0000000000000000 B
   0.9319727891156435  0.5578231292517011  0.0000000000000000 B
   0.8571428571428541  0.5714285714285720  0.0000000000000000 B
   0.7823129251700651  0.5850340136054427  0.0000000000000000 B
   0.7074829931972757  0.5986394557823135  0.0000000000000000 B
   0.6326530612244863  0.6122448979591842  0.0000000000000000 B
   0.5578231292516973  0.6258503401360550  0.0000000000000000 B
   0.4829931972789083  0.6394557823129257  0.0000000000000000 B
   0.4081632653061193  0.6530612244897964  0.0000000000000000 B
   0.3333333333333299  0.6666666666666672  0.0000000000000000 B
   0.2585034013605405  0.6802721088435379  0.0000000000000000 B
   0.1836734693877515  0.6938775510204088  0.0000000000000000 B
   0.1088435374149621  0.7074829931972796  0.0000000000000000 B
   0.3061224489795893  0.4897959183673474  0.0000000000000000 B
   0.0748299319727792  0.9863945578231310  0.0000000000000000 B
