B147
 1.000000
    11.9000000000000021    0.0000000000000000    0.0000000000000000
    -5.9499999999999993   30.9171069142320007    0.0000000000000000
     0.0000000000000000    0.0000000000000000   10.8800000000000008
B
147
Direct
   0.0000000000000000  0.0000000000000000  0.0000000000000000 B
   0.0952380952380952  0.4761904761904762  0.0000000000000000 B
   0.0476190476190477  0.5238095238095237  0.0000000000000000 B
   0.0000000000000000  0.5714285714285714  0.0000000000000000 B
   0.9523809523809523  0.6190476190476191  0.0000000000000000 B
   0.9047619047619048  0.6666666666666666  0.0000000000000000 B
   0.8571428571428572  0.7142857142857142  0.0000000000000000 B
   0.1428571428571428  0.4285714285714285  0.0000000000000000 B
   0.8095238095238095  0.7619047619047619  0.0000000000000000 B
   0.7142857142857143  0.8571428571428571  0.0000000000000000 B
   0.6666666666666667  0.9047619047619047  0.0000000000000000 B
   0.6190476190476191  0.9523809523809523  0.0000000000000000 B
   0.7142857142857142  0.0000000000000000  0.0000000000000000 B
   0.6666666666666665  0.0476190476190476  0.0000000000000000 B
   0.6190476190476190  0.0952380952380952  0.0000000000000000 B
   0.7619047619047619  0.8095238095238095  0.0000000000000000 B
   0.1904761904761905  0.3809523809523809  0.0000000000000000 B
   0.2380952380952381  0.3333333333333333  0.0000000000000000 B
   0.2857142857142857  0.2857142857142857  0.0000000000000000 B
   0.8571428571428572  0.5714285714285714  0.0000000000000000 B
   0.8095238095238095  0.6190476190476191  0.0000000000000000 B
   0.7619047619047619  0.6666666666666666  0.0000000000000000 B
   0.7142857142857144  0.7142857142857142  0.0000000000000000 B
   0.6666666666666667  0.7619047619047619  0.0000000000000000 B
   0.6190476190476191  0.8095238095238095  0.0000000000000000 B
   0.5714285714285714  0.8571428571428571  0.0000000000000000 B
   0.5238095238095239  0.9047619047619047  0.0000000000000000 B
   0.4761904761904763  0.9523809523809523  0.0000000000000000 B
   0.5714285714285714  0.0000000000000000  0.0000000000000000 B
   0.5238095238095237  0.0476190476190476  0.0000000000000000 B
   0.4761904761904762  0.0952380952380952  0.0000000000000000 B
   0.4285714285714285  0.1428571428571428  0.0000000000000000 B
   0.3809523809523809  0.1904761904761905  0.0000000000000000 B
   0.3333333333333333  0.2380952380952381  0.0000000000000000 B
   0.5714285714285714  0.1428571428571428  0.0000000000000000 B
   0.9047619047619049  0.5238095238095237  0.0000000000000000 B
   0.5238095238095237  0.1904761904761905  0.0000000000000000 B
   0.4285714285714285  0.2857142857142857  0.0000000000000000 B
   0.6190476190476191  0.2380952380952381  0.0000000000000000 B
   0.5714285714285714  0.2857142857142857  0.0000000000000000 B
   0.5238095238095237  0.3333333333333333  0.0000000000000000 B
   0.4761904761904762  0.3809523809523809  0.0000000000000000 B
   0.4285714285714285  0.4285714285714285  0.0000000000000000 B
   0.3809523809523809  0.4761904761904762  0.0000000000000000 B
   0.6666666666666666  0.1904761904761905  0.0000000000000000 B
   0.3333333333333334  0.5238095238095237  0.0000000000000000 B
   0.2380952380952380  0.6190476190476191  0.0000000000000000 B
   0.1904761904761905  0.6666666666666666  0.0000000000000000 B
   0.1428571428571429  0.7142857142857142  0.0000000000000000 B
   0.0952380952380952  0.7619047619047619  0.0000000000000000 B
   0.0476190476190476  0.8095238095238095  0.0000000000000000 B
   0.0000000000000000  0.8571428571428571  0.0000000000000000 B
   0.2857142857142857  0.5714285714285714  0.0000000000000000 B
   0.7142857142857142  0.1428571428571428  0.0000000000000000 B
   0.7619047619047619  0.0952380952380952  0.0000000000000000 B
   0.8095238095238095  0.0476190476190476  0.0000000000000000 B
   0.3809523809523809  0.3333333333333333  0.0000000000000000 B
   0.3333333333333333  0.3809523809523809  0.0000000000000000 B
   0.2857142857142856  0.4285714285714285  0.0000000000000000 B
   0.2380952380952380  0.4761904761904762  0.0000000000000000 B
   0.1904761904761905  0.5238095238095237  0.0000000000000000 B
   0.1428571428571428  0.5714285714285714  0.0000000000000000 B
   0.0952380952380951  0.6190476190476191  0.0000000000000000 B
   0.0476190476190476  0.6666666666666666  0.0000000000000000 B
   0.0000000000000000  0.7142857142857142  0.0000000000000000 B
   0.9523809523809523  0.7619047619047619  0.0000000000000000 B
   0.9047619047619047  0.8095238095238095  0.0000000000000000 B
   0.8571428571428571  0.8571428571428571  0.0000000000000000 B
   0.8095238095238095  0.9047619047619047  0.0000000000000000 B
   0.7619047619047619  0.9523809523809523  0.0000000000000000 B
   0.8571428571428571  0.0000000000000000  0.0000000000000000 B
   0.4761904761904761  0.2380952380952381  0.0000000000000000 B
   0.9523809523809524  0.9047619047619047  0.0000000000000000 B
   0.9523809523809523  0.4761904761904762  0.0000000000000000 B
   0.0476190476190476  0.3809523809523809  0.0000000000000000 B
   0.0476190476190477  0.9523809523809523  0.0000000000000000 B
   0.1428571428571428  0.0000000000000000  0.0000000000000000 B
   0.0952380952380952  0.0476190476190476  0.0000000000000000 B
   0.0476190476190476  0.0952380952380952  0.0000000000000000 B
   0.0000000000000000  0.1428571428571428  0.0000000000000000 B
   0.9523809523809523  0.1904761904761905  0.0000000000000000 B
   0.0952380952380953  0.9047619047619047  0.0000000000000000 B
   0.9047619047619048  0.2380952380952381  0.0000000000000000 B
   0.8095238095238095  0.3333333333333333  0.0000000000000000 B
   0.7619047619047619  0.3809523809523809  0.0000000000000000 B
   0.7142857142857143  0.4285714285714285  0.0000000000000000 B
   0.6666666666666667  0.4761904761904762  0.0000000000000000 B
   0.6190476190476191  0.5238095238095237  0.0000000000000000 B
   0.5714285714285714  0.5714285714285714  0.0000000000000000 B
   0.8571428571428572  0.2857142857142857  0.0000000000000000 B
   0.1428571428571429  0.8571428571428571  0.0000000000000000 B
   0.1904761904761905  0.8095238095238095  0.0000000000000000 B
   0.2380952380952381  0.7619047619047619  0.0000000000000000 B
   0.9523809523809523  0.0476190476190476  0.0000000000000000 B
   0.9047619047619048  0.0952380952380952  0.0000000000000000 B
   0.8571428571428572  0.1428571428571428  0.0000000000000000 B
   0.8095238095238095  0.1904761904761905  0.0000000000000000 B
   0.7619047619047619  0.2380952380952381  0.0000000000000000 B
   0.7142857142857143  0.2857142857142857  0.0000000000000000 B
   0.6666666666666667  0.3333333333333333  0.0000000000000000 B
   0.6190476190476191  0.3809523809523809  0.0000000000000000 B
   0.5714285714285714  0.4285714285714285  0.0000000000000000 B
   0.5238095238095238  0.4761904761904762  0.0000000000000000 B
   0.4761904761904763  0.5238095238095237  0.0000000000000000 B
   0.4285714285714286  0.5714285714285714  0.0000000000000000 B
   0.3809523809523809  0.6190476190476191  0.0000000000000000 B
   0.3333333333333334  0.6666666666666666  0.0000000000000000 B
   0.2857142857142858  0.7142857142857142  0.0000000000000000 B
   0.5238095238095237  0.6190476190476191  0.0000000000000000 B
   0.0000000000000000  0.4285714285714285  0.0000000000000000 B
   0.4761904761904763  0.6666666666666666  0.0000000000000000 B
   0.3809523809523809  0.7619047619047619  0.0000000000000000 B
   0.5714285714285715  0.7142857142857142  0.0000000000000000 B
   0.5238095238095238  0.7619047619047619  0.0000000000000000 B
   0.4761904761904762  0.8095238095238095  0.0000000000000000 B
   0.4285714285714286  0.8571428571428571  0.0000000000000000 B
   0.3809523809523810  0.9047619047619047  0.0000000000000000 B
   0.3333333333333334  0.9523809523809523  0.0000000000000000 B
   0.6190476190476191  0.6666666666666666  0.0000000000000000 B
   0.4285714285714285  0.0000000000000000  0.0000000000000000 B
   0.3333333333333333  0.0952380952380952  0.0000000000000000 B
   0.2857142857142857  0.1428571428571428  0.0000000000000000 B
   0.2380952380952381  0.1904761904761905  0.0000000000000000 B
   0.1904761904761905  0.2380952380952381  0.0000000000000000 B
   0.1428571428571428  0.2857142857142857  0.0000000000000000 B
   0.0952380952380952  0.3333333333333333  0.0000000000000000 B
   0.3809523809523809  0.0476190476190476  0.0000000000000000 B
   0.6666666666666666  0.6190476190476191  0.0000000000000000 B
   0.7142857142857143  0.5714285714285714  0.0000000000000000 B
   0.7619047619047620  0.5238095238095237  0.0000000000000000 B
   0.3333333333333333  0.8095238095238095  0.0000000000000000 B
   0.2857142857142858  0.8571428571428571  0.0000000000000000 B
   0.2380952380952381  0.9047619047619047  0.0000000000000000 B
   0.1904761904761905  0.9523809523809523  0.0000000000000000 B
   0.2857142857142857  0.0000000000000000  0.0000000000000000 B
   0.2380952380952381  0.0476190476190476  0.0000000000000000 B
   0.1904761904761905  0.0952380952380952  0.0000000000000000 B
   0.1428571428571428  0.1428571428571428  0.0000000000000000 B
   0.0952380952380952  0.1904761904761905  0.0000000000000000 B
   0.0476190476190476  0.2380952380952381  0.0000000000000000 B
   0.0000000000000000  0.2857142857142857  0.0000000000000000 B
   0.9523809523809523  0.3333333333333333  0.0000000000000000 B
   0.9047619047619048  0.3809523809523809  0.0000000000000000 B
   0.8571428571428572  0.4285714285714285  0.0000000000000000 B
   0.8095238095238095  0.4761904761904762  0.0000000000000000 B
   0.4285714285714286  0.7142857142857142  0.0000000000000000 B
   0.9047619047619048  0.9523809523809523  0.0000000000000000 B
