B147
 1.000000
    14.4500000000000171  -10.3057023047439884    0.0000000000000000
     6.8000000000000114   20.6114046094880337    0.0000000000000000
     0.0000000000000000    0.0000000000000000   10.8800000000000008
B
147
Direct
   0.0000000000000000  0.0000000000000000  0.0000000000000000 B
   0.9659863945578167  0.1972789115646290  0.0000000000000000 B
   0.8911564625850277  0.2312925170068061  0.0000000000000000 B
   0.8163265306122387  0.2653061224489828  0.0000000000000000 B
   0.7414965986394488  0.2993197278911599  0.0000000000000000 B
   0.6666666666666599  0.3333333333333366  0.0000000000000000 B
   0.5918367346938709  0.3673469387755137  0.0000000000000000 B
   0.0408163265306065  0.1632653061224518  0.0000000000000000 B
   0.5170068027210810  0.4013605442176904  0.0000000000000000 B
   0.3673469387755031  0.4693877551020447  0.0000000000000000 B
   0.2925170068027132  0.5034013605442214  0.0000000000000000 B
   0.2176870748299242  0.5374149659863985  0.0000000000000000 B
   0.1428571428571352  0.5714285714285752  0.0000000000000000 B
   0.0680272108843454  0.6054421768707523  0.0000000000000000 B
   0.9931972789115573  0.6394557823129285  0.0000000000000000 B
   0.4421768707482920  0.4353741496598675  0.0000000000000000 B
   0.1156462585033946  0.1292517006802756  0.0000000000000000 B
   0.1904761904761836  0.0952380952380985  0.0000000000000000 B
   0.2653061224489726  0.0612244897959218  0.0000000000000000 B
   0.3877551020408108  0.5510204081632679  0.0000000000000000 B
   0.3129251700680218  0.5850340136054450  0.0000000000000000 B
   0.2380952380952319  0.6190476190476222  0.0000000000000000 B
   0.1632653061224429  0.6530612244897989  0.0000000000000000 B
   0.0884353741496549  0.6870748299319751  0.0000000000000000 B
   0.0136054421768659  0.7210884353741522  0.0000000000000000 B
   0.9387755102040760  0.7551020408163294  0.0000000000000000 B
   0.8639455782312870  0.7891156462585061  0.0000000000000000 B
   0.7891156462584981  0.8231292517006832  0.0000000000000000 B
   0.7142857142857082  0.8571428571428599  0.0000000000000000 B
   0.6394557823129192  0.8911564625850370  0.0000000000000000 B
   0.5646258503401302  0.9251700680272141  0.0000000000000000 B
   0.4897959183673404  0.9591836734693908  0.0000000000000000 B
   0.4149659863945514  0.9931972789115679  0.0000000000000000 B
   0.3401360544217624  0.0272108843537446  0.0000000000000000 B
   0.9183673469387692  0.6734693877551057  0.0000000000000000 B
   0.4625850340135997  0.5170068027210912  0.0000000000000000 B
   0.8435374149659793  0.7074829931972824  0.0000000000000000 B
   0.6938775510204014  0.7755102040816366  0.0000000000000000 B
   0.1972789115646165  0.4557823129251748  0.0000000000000000 B
   0.1224489795918267  0.4897959183673519  0.0000000000000000 B
   0.0476190476190386  0.5238095238095291  0.0000000000000000 B
   0.9727891156462487  0.5578231292517053  0.0000000000000000 B
   0.8979591836734588  0.5918367346938824  0.0000000000000000 B
   0.8231292517006707  0.6258503401360587  0.0000000000000000 B
   0.2721088435374064  0.4217687074829977  0.0000000000000000 B
   0.7482993197278827  0.6598639455782358  0.0000000000000000 B
   0.5986394557823029  0.7278911564625901  0.0000000000000000 B
   0.5238095238095148  0.7619047619047663  0.0000000000000000 B
   0.4489795918367250  0.7959183673469434  0.0000000000000000 B
   0.3741496598639351  0.8299319727891206  0.0000000000000000 B
   0.2993197278911470  0.8639455782312977  0.0000000000000000 B
   0.2244897959183572  0.8979591836734748  0.0000000000000000 B
   0.6734693877550928  0.6938775510204129  0.0000000000000000 B
   0.3469387755101945  0.3877551020408205  0.0000000000000000 B
   0.4217687074829843  0.3537414965986443  0.0000000000000000 B
   0.4965986394557742  0.3197278911564672  0.0000000000000000 B
   0.6190476190476115  0.8095238095238133  0.0000000000000000 B
   0.5442176870748217  0.8435374149659904  0.0000000000000000 B
   0.4693877551020336  0.8775510204081671  0.0000000000000000 B
   0.3945578231292437  0.9115646258503443  0.0000000000000000 B
   0.3197278911564538  0.9455782312925209  0.0000000000000000 B
   0.2448979591836657  0.9795918367346981  0.0000000000000000 B
   0.1700680272108759  0.0136054421768748  0.0000000000000000 B
   0.0952380952380860  0.0476190476190519  0.0000000000000000 B
   0.0204081632652979  0.0816326530612290  0.0000000000000000 B
   0.9455782312925098  0.1156462585034053  0.0000000000000000 B
   0.8707482993197200  0.1496598639455824  0.0000000000000000 B
   0.7959183673469301  0.1836734693877595  0.0000000000000000 B
   0.7210884353741420  0.2176870748299358  0.0000000000000000 B
   0.6462585034013522  0.2517006802721129  0.0000000000000000 B
   0.5714285714285623  0.2857142857142900  0.0000000000000000 B
   0.7687074829931895  0.7414965986394595  0.0000000000000000 B
   0.1496598639455673  0.9319727891156511  0.0000000000000000 B
   0.5374149659863896  0.4829931972789141  0.0000000000000000 B
   0.6870748299319676  0.4149659863945603  0.0000000000000000 B
   0.5034013605442165  0.6802721088435381  0.0000000000000000 B
   0.4285714285714270  0.7142857142857150  0.0000000000000000 B
   0.3537414965986379  0.7482993197278920  0.0000000000000000 B
   0.2789115646258487  0.7823129251700689  0.0000000000000000 B
   0.2040816326530597  0.8163265306122457  0.0000000000000000 B
   0.1292517006802703  0.8503401360544226  0.0000000000000000 B
   0.5782312925170054  0.6462585034013613  0.0000000000000000 B
   0.0544217687074811  0.8843537414965996  0.0000000000000000 B
   0.9047619047619029  0.9523809523809533  0.0000000000000000 B
   0.8299319727891135  0.9863945578231302  0.0000000000000000 B
   0.7551020408163245  0.0204081632653073  0.0000000000000000 B
   0.6802721088435355  0.0544217687074839  0.0000000000000000 B
   0.6054421768707461  0.0884353741496611  0.0000000000000000 B
   0.5306122448979567  0.1224489795918380  0.0000000000000000 B
   0.9795918367346923  0.9183673469387764  0.0000000000000000 B
   0.6530612244897946  0.6122448979591844  0.0000000000000000 B
   0.7278911564625838  0.5782312925170073  0.0000000000000000 B
   0.8027210884353730  0.5442176870748305  0.0000000000000000 B
   0.9251700680272108  0.0340136054421769  0.0000000000000000 B
   0.8503401360544216  0.0680272108843538  0.0000000000000000 B
   0.7755102040816324  0.1020408163265307  0.0000000000000000 B
   0.7006802721088432  0.1360544217687076  0.0000000000000000 B
   0.6258503401360541  0.1700680272108845  0.0000000000000000 B
   0.5510204081632649  0.2040816326530614  0.0000000000000000 B
   0.4761904761904757  0.2380952380952383  0.0000000000000000 B
   0.4013605442176865  0.2721088435374153  0.0000000000000000 B
   0.3265306122448973  0.3061224489795922  0.0000000000000000 B
   0.2517006802721082  0.3401360544217690  0.0000000000000000 B
   0.1768707482993189  0.3741496598639460  0.0000000000000000 B
   0.1020408163265298  0.4081632653061228  0.0000000000000000 B
   0.0272108843537405  0.4421768707482998  0.0000000000000000 B
   0.9523809523809514  0.4761904761904767  0.0000000000000000 B
   0.8775510204081622  0.5102040816326536  0.0000000000000000 B
   0.4557823129251677  0.1564625850340147  0.0000000000000000 B
   0.6122448979591786  0.4489795918367374  0.0000000000000000 B
   0.3809523809523787  0.1904761904761916  0.0000000000000000 B
   0.2312925170067999  0.2585034013605456  0.0000000000000000 B
   0.7346938775510168  0.9387755102040836  0.0000000000000000 B
   0.6598639455782269  0.9727891156462605  0.0000000000000000 B
   0.5850340136054379  0.0068027210884374  0.0000000000000000 B
   0.5102040816326490  0.0408163265306145  0.0000000000000000 B
   0.4353741496598600  0.0748299319727912  0.0000000000000000 B
   0.3605442176870710  0.1088435374149679  0.0000000000000000 B
   0.8095238095238058  0.9047619047619067  0.0000000000000000 B
   0.2857142857142811  0.1428571428571450  0.0000000000000000 B
   0.1360544217687032  0.2108843537414988  0.0000000000000000 B
   0.0612244897959133  0.2448979591836760  0.0000000000000000 B
   0.9863945578231244  0.2789115646258526  0.0000000000000000 B
   0.9115646258503354  0.3129251700680293  0.0000000000000000 B
   0.8367346938775464  0.3469387755102065  0.0000000000000000 B
   0.7619047619047574  0.3809523809523832  0.0000000000000000 B
   0.2108843537414922  0.1768707482993221  0.0000000000000000 B
   0.8843537414965947  0.8707482993197297  0.0000000000000000 B
   0.9591836734693846  0.8367346938775528  0.0000000000000000 B
   0.0340136054421727  0.8027210884353762  0.0000000000000000 B
   0.1564625850340109  0.2925170068027225  0.0000000000000000 B
   0.0816326530612215  0.3265306122448994  0.0000000000000000 B
   0.0068027210884329  0.3605442176870761  0.0000000000000000 B
   0.9319727891156435  0.3945578231292530  0.0000000000000000 B
   0.8571428571428541  0.4285714285714299  0.0000000000000000 B
   0.7823129251700651  0.4625850340136071  0.0000000000000000 B
   0.7074829931972757  0.4965986394557840  0.0000000000000000 B
   0.6326530612244863  0.5306122448979609  0.0000000000000000 B
   0.5578231292516973  0.5646258503401378  0.0000000000000000 B
   0.4829931972789083  0.5986394557823145  0.0000000000000000 B
   0.4081632653061193  0.6326530612244914  0.0000000000000000 B
   0.3333333333333299  0.6666666666666683  0.0000000000000000 B
   0.2585034013605405  0.7006802721088452  0.0000000000000000 B
   0.1836734693877515  0.7346938775510223  0.0000000000000000 B
   0.1088435374149621  0.7687074829931992  0.0000000000000000 B
   0.3061224489795893  0.2244897959183687  0.0000000000000000 B
   0.0748299319727792  0.9659863945578282  0.0000000000000000 B
