B130
 1.000000
     1.7000000000000028  -11.7779454911359664   -0.0000000000000000
   -27.2000000000000171   -2.9444863727839561   -0.0000000000000000
    -0.0000000000000000   -0.0000000000000000  -10.8800000000000008
B
130
Direct
   0.0000000000000000  0.0000000000000000  0.0000000000000000 B
   0.2923076923077375  0.8307692307692229  0.0000000000000000 B
   0.1615384615385054  0.8538461538461464  0.0000000000000000 B
   0.0307692307692733  0.8769230769230694  0.0000000000000000 B
   0.9000000000000430  0.8999999999999928  0.0000000000000000 B
   0.7692307692308109  0.9230769230769162  0.0000000000000000 B
   0.6384615384615806  0.9461538461538392  0.0000000000000000 B
   0.5076923076923485  0.9692307692307622  0.0000000000000000 B
   0.3769230769231182  0.9923076923076852  0.0000000000000000 B
   0.2461538461538879  0.0153846153846084  0.0000000000000000 B
   0.1153846153846558  0.0384615384615317  0.0000000000000000 B
   0.9846153846154237  0.0615384615384549  0.0000000000000000 B
   0.8538461538461934  0.0846153846153779  0.0000000000000000 B
   0.7230769230769614  0.1076923076923013  0.0000000000000000 B
   0.4230769230769678  0.8076923076922999  0.0000000000000000 B
   0.5923076923077293  0.1307692307692243  0.0000000000000000 B
   0.3307692307692687  0.1769230769230705  0.0000000000000000 B
   0.2000000000000384  0.1999999999999935  0.0000000000000000 B
   0.0692307692308045  0.2230769230769170  0.0000000000000000 B
   0.9384615384615742  0.2461538461538402  0.0000000000000000 B
   0.8076923076923439  0.2692307692307632  0.0000000000000000 B
   0.6769230769231100  0.2923076923076866  0.0000000000000000 B
   0.5461538461538797  0.3153846153846096  0.0000000000000000 B
   0.4153846153846494  0.3384615384615328  0.0000000000000000 B
   0.2846153846154191  0.3615384615384558  0.0000000000000000 B
   0.1538461538461871  0.3846153846153788  0.0000000000000000 B
   0.0230769230769550  0.4076923076923022  0.0000000000000000 B
   0.8923076923077247  0.4307692307692252  0.0000000000000000 B
   0.7615384615384944  0.4538461538461485  0.0000000000000000 B
   0.4615384615384990  0.1538461538461475  0.0000000000000000 B
   0.5538461538461998  0.7846153846153769  0.0000000000000000 B
   0.6846153846154301  0.7615384615384539  0.0000000000000000 B
   0.8153846153846604  0.7384615384615310  0.0000000000000000 B
   0.6076923076923677  0.0692307692307592  0.0000000000000000 B
   0.4769230769231356  0.0923076923076822  0.0000000000000000 B
   0.3461538461539035  0.1153846153846056  0.0000000000000000 B
   0.2153846153846750  0.1384615384615286  0.0000000000000000 B
   0.0846153846154429  0.1615384615384516  0.0000000000000000 B
   0.9538461538462109  0.1846153846153751  0.0000000000000000 B
   0.8230769230769805  0.2076923076922981  0.0000000000000000 B
   0.6923076923077485  0.2307692307692211  0.0000000000000000 B
   0.5615384615385182  0.2538461538461441  0.0000000000000000 B
   0.4307692307692879  0.2769230769230675  0.0000000000000000 B
   0.3000000000000540  0.2999999999999909  0.0000000000000000 B
   0.1692307692308237  0.3230769230769139  0.0000000000000000 B
   0.0384615384615934  0.3461538461538369  0.0000000000000000 B
   0.9076923076923613  0.3692307692307604  0.0000000000000000 B
   0.7769230769231292  0.3923076923076834  0.0000000000000000 B
   0.6461538461538989  0.4153846153846064  0.0000000000000000 B
   0.5153846153846686  0.4384615384615294  0.0000000000000000 B
   0.3846153846154383  0.4615384615384528  0.0000000000000000 B
   0.2538461538462045  0.4846153846153758  0.0000000000000000 B
   0.1230769230769742  0.5076923076922992  0.0000000000000000 B
   0.9923076923077438  0.5307692307692222  0.0000000000000000 B
   0.8615384615385100  0.5538461538461457  0.0000000000000000 B
   0.7307692307692797  0.5769230769230687  0.0000000000000000 B
   0.6000000000000494  0.5999999999999917  0.0000000000000000 B
   0.4692307692308191  0.6230769230769146  0.0000000000000000 B
   0.3384615384615870  0.6461538461538376  0.0000000000000000 B
   0.2076923076923549  0.6692307692307611  0.0000000000000000 B
   0.0769230769231246  0.6923076923076845  0.0000000000000000 B
   0.9461538461538925  0.7153846153846075  0.0000000000000000 B
   0.6307692307692605  0.4769230769230719  0.0000000000000000 B
   0.5000000000000302  0.4999999999999949  0.0000000000000000 B
   0.3692307692307999  0.5230769230769179  0.0000000000000000 B
   0.2384615384615678  0.5461538461538411  0.0000000000000000 B
   0.7923076923077059  0.3307692307692285  0.0000000000000000 B
   0.6615384615384747  0.3538461538461516  0.0000000000000000 B
   0.5307692307692435  0.3769230769230748  0.0000000000000000 B
   0.4000000000000123  0.3999999999999979  0.0000000000000000 B
   0.2692307692307812  0.4230769230769211  0.0000000000000000 B
   0.1384615384615500  0.4461538461538442  0.0000000000000000 B
   0.0076923076923183  0.4692307692307673  0.0000000000000000 B
   0.8769230769230871  0.4923076923076906  0.0000000000000000 B
   0.7461538461538559  0.5153846153846138  0.0000000000000000 B
   0.6153846153846247  0.5384615384615369  0.0000000000000000 B
   0.4846153846153936  0.5615384615384600  0.0000000000000000 B
   0.3538461538461624  0.5846153846153832  0.0000000000000000 B
   0.2230769230769312  0.6076923076923063  0.0000000000000000 B
   0.0923076923077000  0.6307692307692294  0.0000000000000000 B
   0.9615384615384686  0.6538461538461526  0.0000000000000000 B
   0.8307692307692374  0.6769230769230759  0.0000000000000000 B
   0.7000000000000062  0.6999999999999990  0.0000000000000000 B
   0.5692307692307750  0.7230769230769221  0.0000000000000000 B
   0.4384615384615436  0.7461538461538453  0.0000000000000000 B
   0.3076923076923124  0.7692307692307685  0.0000000000000000 B
   0.1769230769230812  0.7923076923076916  0.0000000000000000 B
   0.0461538461538500  0.8153846153846147  0.0000000000000000 B
   0.9153846153846187  0.8384615384615379  0.0000000000000000 B
   0.7846153846153875  0.8615384615384610  0.0000000000000000 B
   0.6538461538461562  0.8846153846153842  0.0000000000000000 B
   0.5230769230769250  0.9076923076923074  0.0000000000000000 B
   0.3923076923076937  0.9307692307692306  0.0000000000000000 B
   0.2615384615384625  0.9538461538461537  0.0000000000000000 B
   0.1307692307692312  0.9769230769230769  0.0000000000000000 B
   0.9230769230769371  0.3076923076923053  0.0000000000000000 B
   0.7384615384615998  0.0461538461538358  0.0000000000000000 B
   0.0538461538461688  0.2846153846153822  0.0000000000000000 B
   0.3153846153846303  0.2384615384615359  0.0000000000000000 B
   0.1076923076923375  0.5692307692307643  0.0000000000000000 B
   0.9769230769231054  0.5923076923076875  0.0000000000000000 B
   0.8461538461538742  0.6153846153846105  0.0000000000000000 B
   0.7153846153846439  0.6384615384615338  0.0000000000000000 B
   0.5846153846154118  0.6615384615384570  0.0000000000000000 B
   0.4538461538461807  0.6846153846153802  0.0000000000000000 B
   0.3230769230769495  0.7076923076923032  0.0000000000000000 B
   0.1923076923077192  0.7307692307692264  0.0000000000000000 B
   0.0615384615384871  0.7538461538461496  0.0000000000000000 B
   0.9307692307692550  0.7769230769230728  0.0000000000000000 B
   0.8000000000000247  0.7999999999999958  0.0000000000000000 B
   0.6692307692307935  0.8230769230769188  0.0000000000000000 B
   0.5384615384615623  0.8461538461538423  0.0000000000000000 B
   0.4076923076923302  0.8692307692307655  0.0000000000000000 B
   0.2769230769230999  0.8923076923076885  0.0000000000000000 B
   0.1461538461538687  0.9153846153846115  0.0000000000000000 B
   0.0153846153846366  0.9384615384615347  0.0000000000000000 B
   0.8846153846154055  0.9615384615384581  0.0000000000000000 B
   0.7538461538461743  0.9846153846153811  0.0000000000000000 B
   0.6230769230769440  0.0076923076923042  0.0000000000000000 B
   0.4923076923077119  0.0307692307692274  0.0000000000000000 B
   0.3615384615384807  0.0538461538461507  0.0000000000000000 B
   0.2307692307692495  0.0769230769230738  0.0000000000000000 B
   0.1000000000000192  0.0999999999999968  0.0000000000000000 B
   0.9692307692307871  0.1230769230769201  0.0000000000000000 B
   0.8384615384615550  0.1461538461538433  0.0000000000000000 B
   0.7076923076923247  0.1692307692307664  0.0000000000000000 B
   0.5769230769230935  0.1923076923076894  0.0000000000000000 B
   0.4461538461538623  0.2153846153846126  0.0000000000000000 B
   0.1846153846153999  0.2615384615384589  0.0000000000000000 B
   0.8692307692308283  0.0230769230769128  0.0000000000000000 B
