B130
 1.000000
     3.4000000000000057   14.7224318639199794    0.0000000000000000
   -22.1000000000000227    0.0000000000000000    0.0000000000000000
     0.0000000000000000    0.0000000000000000   10.8800000000000008
B
130
Direct
   0.0000000000000000  0.0000000000000000  0.0000000000000000 B
   0.3999999999999808  0.0615384615384515  0.0000000000000000 B
   0.2999999999999794  0.0076923076922979  0.0000000000000000 B
   0.1999999999999797  0.9538461538461442  0.0000000000000000 B
   0.0999999999999801  0.8999999999999906  0.0000000000000000 B
   0.9999999999999805  0.8461538461538360  0.0000000000000000 B
   0.8999999999999808  0.7923076923076824  0.0000000000000000 B
   0.7999999999999812  0.7384615384615287  0.0000000000000000 B
   0.6999999999999815  0.6846153846153760  0.0000000000000000 B
   0.5999999999999819  0.6307692307692223  0.0000000000000000 B
   0.4999999999999822  0.5769230769230678  0.0000000000000000 B
   0.3999999999999826  0.5230769230769141  0.0000000000000000 B
   0.2999999999999829  0.4692307692307605  0.0000000000000000 B
   0.1999999999999815  0.4153846153846059  0.0000000000000000 B
   0.4999999999999805  0.1153846153846052  0.0000000000000000 B
   0.0999999999999819  0.3615384615384531  0.0000000000000000 B
   0.8999999999999835  0.2538461538461458  0.0000000000000000 B
   0.7999999999999838  0.1999999999999922  0.0000000000000000 B
   0.6999999999999833  0.1461538461538376  0.0000000000000000 B
   0.5999999999999837  0.0923076923076840  0.0000000000000000 B
   0.4999999999999840  0.0384615384615303  0.0000000000000000 B
   0.3999999999999835  0.9846153846153762  0.0000000000000000 B
   0.2999999999999838  0.9307692307692230  0.0000000000000000 B
   0.1999999999999851  0.8769230769230694  0.0000000000000000 B
   0.0999999999999854  0.8230769230769157  0.0000000000000000 B
   0.9999999999999858  0.7692307692307621  0.0000000000000000 B
   0.8999999999999853  0.7153846153846080  0.0000000000000000 B
   0.7999999999999856  0.6615384615384543  0.0000000000000000 B
   0.6999999999999860  0.6076923076923006  0.0000000000000000 B
   0.9999999999999831  0.3076923076922995  0.0000000000000000 B
   0.5999999999999801  0.1692307692307589  0.0000000000000000 B
   0.6999999999999797  0.2230769230769125  0.0000000000000000 B
   0.7999999999999776  0.2769230769230662  0.0000000000000000 B
   0.6999999999999726  0.8384615384615248  0.0000000000000000 B
   0.5999999999999730  0.7846153846153712  0.0000000000000000 B
   0.4999999999999734  0.7307692307692175  0.0000000000000000 B
   0.3999999999999737  0.6769230769230639  0.0000000000000000 B
   0.2999999999999741  0.6230769230769102  0.0000000000000000 B
   0.1999999999999726  0.5692307692307557  0.0000000000000000 B
   0.0999999999999730  0.5153846153846020  0.0000000000000000 B
   0.9999999999999751  0.4615384615384484  0.0000000000000000 B
   0.8999999999999755  0.4076923076922956  0.0000000000000000 B
   0.7999999999999758  0.3538461538461419  0.0000000000000000 B
   0.6999999999999744  0.2999999999999874  0.0000000000000000 B
   0.5999999999999748  0.2461538461538337  0.0000000000000000 B
   0.4999999999999751  0.1923076923076801  0.0000000000000000 B
   0.3999999999999755  0.1384615384615255  0.0000000000000000 B
   0.2999999999999758  0.0846153846153728  0.0000000000000000 B
   0.1999999999999762  0.0307692307692191  0.0000000000000000 B
   0.0999999999999766  0.9769230769230655  0.0000000000000000 B
   0.9999999999999769  0.9230769230769118  0.0000000000000000 B
   0.8999999999999773  0.8692307692307573  0.0000000000000000 B
   0.7999999999999776  0.8153846153846036  0.0000000000000000 B
   0.6999999999999780  0.7615384615384500  0.0000000000000000 B
   0.5999999999999766  0.7076923076922963  0.0000000000000000 B
   0.4999999999999769  0.6538461538461426  0.0000000000000000 B
   0.3999999999999773  0.5999999999999890  0.0000000000000000 B
   0.2999999999999776  0.5461538461538353  0.0000000000000000 B
   0.1999999999999797  0.4923076923076817  0.0000000000000000 B
   0.0999999999999783  0.4384615384615271  0.0000000000000000 B
   0.9999999999999787  0.3846153846153744  0.0000000000000000 B
   0.8999999999999790  0.3307692307692207  0.0000000000000000 B
   0.5999999999999854  0.5538461538461465  0.0000000000000000 B
   0.4999999999999858  0.4999999999999929  0.0000000000000000 B
   0.3999999999999861  0.4461538461538392  0.0000000000000000 B
   0.2999999999999865  0.3923076923076856  0.0000000000000000 B
   0.8999999999999937  0.5615384615384584  0.0000000000000000 B
   0.7999999999999940  0.5076923076923048  0.0000000000000000 B
   0.6999999999999944  0.4538461538461509  0.0000000000000000 B
   0.5999999999999943  0.3999999999999972  0.0000000000000000 B
   0.4999999999999947  0.3461538461538436  0.0000000000000000 B
   0.3999999999999950  0.2923076923076897  0.0000000000000000 B
   0.2999999999999949  0.2384615384615361  0.0000000000000000 B
   0.1999999999999953  0.1846153846153822  0.0000000000000000 B
   0.0999999999999956  0.1307692307692285  0.0000000000000000 B
   0.9999999999999958  0.0769230769230749  0.0000000000000000 B
   0.8999999999999959  0.0230769230769210  0.0000000000000000 B
   0.7999999999999963  0.9692307692307673  0.0000000000000000 B
   0.6999999999999964  0.9153846153846136  0.0000000000000000 B
   0.5999999999999965  0.8615384615384598  0.0000000000000000 B
   0.4999999999999969  0.8076923076923060  0.0000000000000000 B
   0.3999999999999970  0.7538461538461524  0.0000000000000000 B
   0.2999999999999972  0.6999999999999986  0.0000000000000000 B
   0.1999999999999975  0.6461538461538449  0.0000000000000000 B
   0.0999999999999976  0.5923076923076911  0.0000000000000000 B
   0.9999999999999979  0.5384615384615374  0.0000000000000000 B
   0.8999999999999981  0.4846153846153837  0.0000000000000000 B
   0.7999999999999983  0.4307692307692299  0.0000000000000000 B
   0.6999999999999985  0.3769230769230762  0.0000000000000000 B
   0.5999999999999988  0.3230769230769224  0.0000000000000000 B
   0.4999999999999989  0.2692307692307687  0.0000000000000000 B
   0.3999999999999991  0.2153846153846150  0.0000000000000000 B
   0.2999999999999994  0.1615384615384612  0.0000000000000000 B
   0.1999999999999996  0.1076923076923075  0.0000000000000000 B
   0.0999999999999998  0.0538461538461537  0.0000000000000000 B
   0.9999999999999938  0.6153846153846121  0.0000000000000000 B
   0.7999999999999723  0.8923076923076785  0.0000000000000000 B
   0.0999999999999934  0.6692307692307660  0.0000000000000000 B
   0.2999999999999927  0.7769230769230733  0.0000000000000000 B
   0.1999999999999869  0.3384615384615319  0.0000000000000000 B
   0.0999999999999863  0.2846153846153778  0.0000000000000000 B
   0.9999999999999876  0.2307692307692242  0.0000000000000000 B
   0.8999999999999879  0.1769230769230710  0.0000000000000000 B
   0.7999999999999874  0.1230769230769169  0.0000000000000000 B
   0.6999999999999877  0.0692307692307628  0.0000000000000000 B
   0.5999999999999881  0.0153846153846096  0.0000000000000000 B
   0.4999999999999885  0.9615384615384559  0.0000000000000000 B
   0.3999999999999888  0.9076923076923018  0.0000000000000000 B
   0.2999999999999883  0.8538461538461481  0.0000000000000000 B
   0.1999999999999886  0.7999999999999945  0.0000000000000000 B
   0.0999999999999899  0.7461538461538408  0.0000000000000000 B
   0.9999999999999893  0.6923076923076872  0.0000000000000000 B
   0.8999999999999888  0.6384615384615331  0.0000000000000000 B
   0.7999999999999901  0.5846153846153794  0.0000000000000000 B
   0.6999999999999904  0.5307692307692258  0.0000000000000000 B
   0.5999999999999899  0.4769230769230721  0.0000000000000000 B
   0.4999999999999902  0.4230769230769180  0.0000000000000000 B
   0.3999999999999906  0.3692307692307644  0.0000000000000000 B
   0.2999999999999909  0.3153846153846112  0.0000000000000000 B
   0.1999999999999913  0.2615384615384571  0.0000000000000000 B
   0.0999999999999908  0.2076923076923030  0.0000000000000000 B
   0.9999999999999916  0.1538461538461497  0.0000000000000000 B
   0.8999999999999919  0.0999999999999961  0.0000000000000000 B
   0.7999999999999918  0.0461538461538420  0.0000000000000000 B
   0.6999999999999917  0.9923076923076881  0.0000000000000000 B
   0.5999999999999925  0.9384615384615347  0.0000000000000000 B
   0.4999999999999929  0.8846153846153810  0.0000000000000000 B
   0.3999999999999928  0.8307692307692272  0.0000000000000000 B
   0.1999999999999931  0.7230769230769196  0.0000000000000000 B
   0.8999999999999719  0.9461538461538321  0.0000000000000000 B
