B148
 1.000000
    13.5999999999999943   -5.8889727455679974    0.0000000000000000
     8.5000000000000000   23.5558909822719897    0.0000000000000000
     0.0000000000000000    0.0000000000000000   10.8800000000000008
B
148
Direct
   0.0000000000000000  0.0000000000000000  0.0000000000000000 B
   0.6554054054053999  0.8513513513513540  0.0000000000000000 B
   0.5675675675675613  0.8918918918918948  0.0000000000000000 B
   0.4797297297297227  0.9324324324324360  0.0000000000000000 B
   0.3918918918918859  0.9729729729729759  0.0000000000000000 B
   0.3040540540540473  0.0135135135135167  0.0000000000000000 B
   0.2162162162162105  0.0540540540540571  0.0000000000000000 B
   0.7432432432432368  0.8108108108108141  0.0000000000000000 B
   0.1283783783783718  0.0945945945945974  0.0000000000000000 B
   0.9527027027026964  0.1756756756756790  0.0000000000000000 B
   0.8648648648648578  0.2162162162162193  0.0000000000000000 B
   0.7770270270270192  0.2567567567567606  0.0000000000000000 B
   0.6891891891891824  0.2972972972973009  0.0000000000000000 B
   0.6013513513513438  0.3378378378378413  0.0000000000000000 B
   0.5135135135135052  0.3783783783783825  0.0000000000000000 B
   0.0405405405405332  0.1351351351351386  0.0000000000000000 B
   0.8310810810810754  0.7702702702702733  0.0000000000000000 B
   0.9189189189189122  0.7297297297297329  0.0000000000000000 B
   0.0067567567567508  0.6891891891891921  0.0000000000000000 B
   0.3243243243243183  0.0810810810810838  0.0000000000000000 B
   0.2364864864864815  0.1216216216216242  0.0000000000000000 B
   0.1486486486486429  0.1621621621621649  0.0000000000000000 B
   0.0608108108108061  0.2027027027027049  0.0000000000000000 B
   0.9729729729729675  0.2432432432432456  0.0000000000000000 B
   0.8851351351351298  0.2837837837837864  0.0000000000000000 B
   0.7972972972972920  0.3243243243243268  0.0000000000000000 B
   0.7094594594594543  0.3648648648648676  0.0000000000000000 B
   0.6216216216216166  0.4054054054054079  0.0000000000000000 B
   0.5337837837837789  0.4459459459459487  0.0000000000000000 B
   0.4459459459459403  0.4864864864864895  0.0000000000000000 B
   0.3581081081081026  0.5270270270270294  0.0000000000000000 B
   0.2702702702702648  0.5675675675675702  0.0000000000000000 B
   0.1824324324324262  0.6081081081081114  0.0000000000000000 B
   0.0945945945945894  0.6486486486486513  0.0000000000000000 B
   0.4256756756756683  0.4189189189189220  0.0000000000000000 B
   0.4121621621621570  0.0405405405405430  0.0000000000000000 B
   0.3378378378378297  0.4594594594594632  0.0000000000000000 B
   0.1621621621621543  0.5405405405405439  0.0000000000000000 B
   0.4054054054053982  0.3513513513513553  0.0000000000000000 B
   0.3175675675675595  0.3918918918918957  0.0000000000000000 B
   0.2297297297297209  0.4324324324324369  0.0000000000000000 B
   0.1418918918918841  0.4729729729729772  0.0000000000000000 B
   0.0540540540540455  0.5135135135135176  0.0000000000000000 B
   0.9662162162162069  0.5540540540540588  0.0000000000000000 B
   0.4932432432432350  0.3108108108108150  0.0000000000000000 B
   0.8783783783783701  0.5945945945945992  0.0000000000000000 B
   0.7027027027026929  0.6756756756756808  0.0000000000000000 B
   0.6148648648648560  0.7162162162162211  0.0000000000000000 B
   0.5270270270270174  0.7567567567567615  0.0000000000000000 B
   0.4391891891891806  0.7972972972973018  0.0000000000000000 B
   0.3513513513513420  0.8378378378378422  0.0000000000000000 B
   0.2635135135135034  0.8783783783783834  0.0000000000000000 B
   0.7905405405405315  0.6351351351351395  0.0000000000000000 B
   0.5810810810810736  0.2702702702702746  0.0000000000000000 B
   0.6689189189189104  0.2297297297297343  0.0000000000000000 B
   0.7567567567567490  0.1891891891891930  0.0000000000000000 B
   0.0743243243243157  0.5810810810810851  0.0000000000000000 B
   0.9864864864864789  0.6216216216216255  0.0000000000000000 B
   0.8986486486486402  0.6621621621621658  0.0000000000000000 B
   0.8108108108108034  0.7027027027027062  0.0000000000000000 B
   0.7229729729729648  0.7432432432432465  0.0000000000000000 B
   0.6351351351351280  0.7837837837837878  0.0000000000000000 B
   0.5472972972972894  0.8243243243243281  0.0000000000000000 B
   0.4594594594594525  0.8648648648648685  0.0000000000000000 B
   0.3716216216216139  0.9054054054054097  0.0000000000000000 B
   0.2837837837837771  0.9459459459459501  0.0000000000000000 B
   0.1959459459459385  0.9864864864864904  0.0000000000000000 B
   0.1081081081080999  0.0270270270270316  0.0000000000000000 B
   0.0202702702702631  0.0675675675675711  0.0000000000000000 B
   0.9324324324324245  0.1081081081081123  0.0000000000000000 B
   0.8445945945945876  0.1486486486486527  0.0000000000000000 B
   0.2499999999999929  0.5000000000000036  0.0000000000000000 B
   0.4999999999999956  0.0000000000000022  0.0000000000000000 B
   0.5878378378378333  0.9594594594594619  0.0000000000000000 B
   0.6756756756756710  0.9189189189189211  0.0000000000000000 B
   0.2432432432432419  0.8108108108108114  0.0000000000000000 B
   0.1554054054054042  0.8513513513513520  0.0000000000000000 B
   0.0675675675675662  0.8918918918918926  0.0000000000000000 B
   0.9797297297297280  0.9324324324324332  0.0000000000000000 B
   0.8918918918918903  0.9729729729729737  0.0000000000000000 B
   0.8040540540540526  0.0135135135135143  0.0000000000000000 B
   0.3310810810810796  0.7702702702702710  0.0000000000000000 B
   0.7162162162162145  0.0540540540540548  0.0000000000000000 B
   0.5405405405405386  0.1351351351351360  0.0000000000000000 B
   0.4527027027027009  0.1756756756756765  0.0000000000000000 B
   0.3648648648648631  0.2162162162162171  0.0000000000000000 B
   0.2770270270270250  0.2567567567567579  0.0000000000000000 B
   0.1891891891891873  0.2972972972972983  0.0000000000000000 B
   0.1013513513513495  0.3378378378378388  0.0000000000000000 B
   0.6283783783783763  0.0945945945945956  0.0000000000000000 B
   0.4189189189189177  0.7297297297297303  0.0000000000000000 B
   0.5067567567567557  0.6891891891891897  0.0000000000000000 B
   0.5945945945945936  0.6486486486486491  0.0000000000000000 B
   0.9121621621621621  0.0405405405405406  0.0000000000000000 B
   0.8243243243243242  0.0810810810810811  0.0000000000000000 B
   0.7364864864864863  0.1216216216216217  0.0000000000000000 B
   0.6486486486486485  0.1621621621621623  0.0000000000000000 B
   0.5608108108108105  0.2027027027027029  0.0000000000000000 B
   0.4729729729729726  0.2432432432432434  0.0000000000000000 B
   0.3851351351351346  0.2837837837837840  0.0000000000000000 B
   0.2972972972972968  0.3243243243243246  0.0000000000000000 B
   0.2094594594594589  0.3648648648648651  0.0000000000000000 B
   0.1216216216216209  0.4054054054054057  0.0000000000000000 B
   0.0337837837837831  0.4459459459459463  0.0000000000000000 B
   0.9459459459459452  0.4864864864864868  0.0000000000000000 B
   0.8581081081081072  0.5270270270270274  0.0000000000000000 B
   0.7702702702702693  0.5675675675675680  0.0000000000000000 B
   0.6824324324324316  0.6081081081081086  0.0000000000000000 B
   0.0135135135135114  0.3783783783783794  0.0000000000000000 B
   0.9256756756756732  0.4189189189189202  0.0000000000000000 B
   0.8378378378378355  0.4594594594594605  0.0000000000000000 B
   0.7499999999999978  0.5000000000000011  0.0000000000000000 B
   0.9932432432432394  0.3108108108108127  0.0000000000000000 B
   0.9054054054054017  0.3513513513513531  0.0000000000000000 B
   0.8175675675675640  0.3918918918918939  0.0000000000000000 B
   0.7297297297297263  0.4324324324324342  0.0000000000000000 B
   0.6418918918918886  0.4729729729729750  0.0000000000000000 B
   0.5540540540540499  0.5135135135135158  0.0000000000000000 B
   0.4662162162162122  0.5540540540540562  0.0000000000000000 B
   0.3783783783783745  0.5945945945945965  0.0000000000000000 B
   0.2905405405405368  0.6351351351351373  0.0000000000000000 B
   0.2027027027026991  0.6756756756756777  0.0000000000000000 B
   0.1148648648648605  0.7162162162162184  0.0000000000000000 B
   0.0270270270270228  0.7567567567567588  0.0000000000000000 B
   0.9391891891891850  0.7972972972972996  0.0000000000000000 B
   0.8513513513513464  0.8378378378378404  0.0000000000000000 B
   0.7635135135135087  0.8783783783783807  0.0000000000000000 B
   0.0810810810810771  0.2702702702702720  0.0000000000000000 B
   0.1756756756756666  0.9189189189189237  0.0000000000000000 B
   0.1689189189189149  0.2297297297297316  0.0000000000000000 B
   0.3445945945945912  0.1486486486486505  0.0000000000000000 B
   0.6621621621621592  0.5405405405405419  0.0000000000000000 B
   0.5743243243243215  0.5810810810810825  0.0000000000000000 B
   0.4864864864864837  0.6216216216216228  0.0000000000000000 B
   0.3986486486486460  0.6621621621621634  0.0000000000000000 B
   0.3108108108108083  0.7027027027027040  0.0000000000000000 B
   0.2229729729729701  0.7432432432432448  0.0000000000000000 B
   0.1351351351351324  0.7837837837837851  0.0000000000000000 B
   0.0472972972972947  0.8243243243243257  0.0000000000000000 B
   0.9594594594594561  0.8648648648648665  0.0000000000000000 B
   0.8716216216216184  0.9054054054054070  0.0000000000000000 B
   0.7837837837837807  0.9459459459459474  0.0000000000000000 B
   0.6959459459459429  0.9864864864864880  0.0000000000000000 B
   0.6081081081081052  0.0270270270270285  0.0000000000000000 B
   0.5202702702702666  0.0675675675675693  0.0000000000000000 B
   0.4324324324324289  0.1081081081081097  0.0000000000000000 B
   0.2567567567567526  0.1891891891891913  0.0000000000000000 B
   0.0878378378378279  0.9594594594594641  0.0000000000000000 B
