B148
 1.000000
     3.4000000000000057    5.8889727455680259    0.0000000000000000
   -47.6000000000000796   26.5003773550558321    0.0000000000000000
     0.0000000000000000    0.0000000000000000   10.8800000000000008
B
148
Direct
   0.0000000000000000  0.0000000000000000  0.0000000000000000 B
   0.1959459459459598  0.5675675675675702  0.0000000000000000 B
   0.3243243243243388  0.5945945945945974  0.0000000000000000 B
   0.4527027027027177  0.6216216216216250  0.0000000000000000 B
   0.5810810810810949  0.6486486486486518  0.0000000000000000 B
   0.7094594594594739  0.6756756756756790  0.0000000000000000 B
   0.8378378378378510  0.7027027027027057  0.0000000000000000 B
   0.0675675675675826  0.5405405405405435  0.0000000000000000 B
   0.9662162162162318  0.7297297297297329  0.0000000000000000 B
   0.2229729729729879  0.7837837837837869  0.0000000000000000 B
   0.3513513513513669  0.8108108108108141  0.0000000000000000 B
   0.4797297297297458  0.8378378378378413  0.0000000000000000 B
   0.6081081081081230  0.8648648648648680  0.0000000000000000 B
   0.7364864864865037  0.8918918918918952  0.0000000000000000 B
   0.8648648648648827  0.9189189189189224  0.0000000000000000 B
   0.0945945945946107  0.7567567567567601  0.0000000000000000 B
   0.9391891891892037  0.5135135135135163  0.0000000000000000 B
   0.8108108108108265  0.4864864864864895  0.0000000000000000 B
   0.6824324324324458  0.4594594594594623  0.0000000000000000 B
   0.7567567567567686  0.0540540540540566  0.0000000000000000 B
   0.8851351351351457  0.0810810810810834  0.0000000000000000 B
   0.0135135135135265  0.1081081081081106  0.0000000000000000 B
   0.1418918918919037  0.1351351351351373  0.0000000000000000 B
   0.2702702702702826  0.1621621621621645  0.0000000000000000 B
   0.3986486486486616  0.1891891891891917  0.0000000000000000 B
   0.5270270270270387  0.2162162162162189  0.0000000000000000 B
   0.6554054054054177  0.2432432432432461  0.0000000000000000 B
   0.7837837837837949  0.2702702702702728  0.0000000000000000 B
   0.9121621621621756  0.2972972972973000  0.0000000000000000 B
   0.0405405405405546  0.3243243243243272  0.0000000000000000 B
   0.1689189189189317  0.3513513513513540  0.0000000000000000 B
   0.2972972972973107  0.3783783783783812  0.0000000000000000 B
   0.4256756756756896  0.4054054054054084  0.0000000000000000 B
   0.5540540540540668  0.4324324324324351  0.0000000000000000 B
   0.9932432432432599  0.9459459459459492  0.0000000000000000 B
   0.6283783783783896  0.0270270270270294  0.0000000000000000 B
   0.1216216216216388  0.9729729729729764  0.0000000000000000 B
   0.3783783783783949  0.0270270270270307  0.0000000000000000 B
   0.9459459459459651  0.5675675675675715  0.0000000000000000 B
   0.0743243243243441  0.5945945945945987  0.0000000000000000 B
   0.2027027027027231  0.6216216216216259  0.0000000000000000 B
   0.3310810810811020  0.6486486486486527  0.0000000000000000 B
   0.4594594594594810  0.6756756756756799  0.0000000000000000 B
   0.5878378378378599  0.7027027027027071  0.0000000000000000 B
   0.8175675675675862  0.5405405405405448  0.0000000000000000 B
   0.7162162162162353  0.7297297297297338  0.0000000000000000 B
   0.9729729729729968  0.7837837837837882  0.0000000000000000 B
   0.1013513513513722  0.8108108108108154  0.0000000000000000 B
   0.2297297297297511  0.8378378378378426  0.0000000000000000 B
   0.3581081081081301  0.8648648648648694  0.0000000000000000 B
   0.4864864864865091  0.8918918918918965  0.0000000000000000 B
   0.6148648648648880  0.9189189189189237  0.0000000000000000 B
   0.8445945945946143  0.7567567567567610  0.0000000000000000 B
   0.6891891891892072  0.5135135135135176  0.0000000000000000 B
   0.5608108108108318  0.4864864864864908  0.0000000000000000 B
   0.4324324324324529  0.4594594594594636  0.0000000000000000 B
   0.5067567567567739  0.0540540540540579  0.0000000000000000 B
   0.6351351351351511  0.0810810810810847  0.0000000000000000 B
   0.7635135135135318  0.1081081081081119  0.0000000000000000 B
   0.8918918918919090  0.1351351351351386  0.0000000000000000 B
   0.0202702702702879  0.1621621621621658  0.0000000000000000 B
   0.1486486486486669  0.1891891891891930  0.0000000000000000 B
   0.2770270270270441  0.2162162162162198  0.0000000000000000 B
   0.4054054054054230  0.2432432432432470  0.0000000000000000 B
   0.5337837837838020  0.2702702702702742  0.0000000000000000 B
   0.6621621621621809  0.2972972972973009  0.0000000000000000 B
   0.7905405405405599  0.3243243243243281  0.0000000000000000 B
   0.9189189189189388  0.3513513513513553  0.0000000000000000 B
   0.0472972972973160  0.3783783783783821  0.0000000000000000 B
   0.1756756756756950  0.4054054054054097  0.0000000000000000 B
   0.3040540540540739  0.4324324324324365  0.0000000000000000 B
   0.2500000000000160  0.0000000000000036  0.0000000000000000 B
   0.5000000000000107  0.0000000000000022  0.0000000000000000 B
   0.3716216216216317  0.9729729729729752  0.0000000000000000 B
   0.2432432432432545  0.9459459459459483  0.0000000000000000 B
   0.5675675675675707  0.5405405405405411  0.0000000000000000 B
   0.6959459459459487  0.5675675675675682  0.0000000000000000 B
   0.8243243243243277  0.5945945945945953  0.0000000000000000 B
   0.9527027027027066  0.6216216216216224  0.0000000000000000 B
   0.0810810810810847  0.6486486486486494  0.0000000000000000 B
   0.2094594594594628  0.6756756756756764  0.0000000000000000 B
   0.4391891891891921  0.5135135135135142  0.0000000000000000 B
   0.3378378378378417  0.7027027027027035  0.0000000000000000 B
   0.5945945945945987  0.7567567567567577  0.0000000000000000 B
   0.7229729729729772  0.7837837837837847  0.0000000000000000 B
   0.8513513513513558  0.8108108108108117  0.0000000000000000 B
   0.9797297297297347  0.8378378378378388  0.0000000000000000 B
   0.1081081081081132  0.8648648648648659  0.0000000000000000 B
   0.2364864864864913  0.8918918918918929  0.0000000000000000 B
   0.4662162162162207  0.7297297297297306  0.0000000000000000 B
   0.3108108108108136  0.4864864864864871  0.0000000000000000 B
   0.1824324324324351  0.4594594594594600  0.0000000000000000 B
   0.0540540540540566  0.4324324324324330  0.0000000000000000 B
   0.1283783783783785  0.0270270270270271  0.0000000000000000 B
   0.2567567567567571  0.0540540540540541  0.0000000000000000 B
   0.3851351351351356  0.0810810810810812  0.0000000000000000 B
   0.5135135135135142  0.1081081081081082  0.0000000000000000 B
   0.6418918918918927  0.1351351351351353  0.0000000000000000 B
   0.7702702702702712  0.1621621621621623  0.0000000000000000 B
   0.8986486486486497  0.1891891891891894  0.0000000000000000 B
   0.0270270270270283  0.2162162162162165  0.0000000000000000 B
   0.1554054054054068  0.2432432432432435  0.0000000000000000 B
   0.2837837837837853  0.2702702702702706  0.0000000000000000 B
   0.4121621621621638  0.2972972972972976  0.0000000000000000 B
   0.5405405405405423  0.3243243243243247  0.0000000000000000 B
   0.6689189189189209  0.3513513513513518  0.0000000000000000 B
   0.7972972972972994  0.3783783783783788  0.0000000000000000 B
   0.9256756756756779  0.4054054054054059  0.0000000000000000 B
   0.3648648648648702  0.9189189189189200  0.0000000000000000 B
   0.4932432432432492  0.9459459459459471  0.0000000000000000 B
   0.6216216216216273  0.9729729729729741  0.0000000000000000 B
   0.7500000000000053  0.0000000000000011  0.0000000000000000 B
   0.3175675675675755  0.5405405405405423  0.0000000000000000 B
   0.4459459459459545  0.5675675675675693  0.0000000000000000 B
   0.5743243243243334  0.5945945945945965  0.0000000000000000 B
   0.7027027027027115  0.6216216216216235  0.0000000000000000 B
   0.8310810810810905  0.6486486486486505  0.0000000000000000 B
   0.9594594594594694  0.6756756756756777  0.0000000000000000 B
   0.0878378378378475  0.7027027027027049  0.0000000000000000 B
   0.2162162162162264  0.7297297297297318  0.0000000000000000 B
   0.3445945945946036  0.7567567567567588  0.0000000000000000 B
   0.4729729729729826  0.7837837837837858  0.0000000000000000 B
   0.6013513513513615  0.8108108108108130  0.0000000000000000 B
   0.7297297297297405  0.8378378378378399  0.0000000000000000 B
   0.8581081081081177  0.8648648648648669  0.0000000000000000 B
   0.9864864864864984  0.8918918918918941  0.0000000000000000 B
   0.1148648648648756  0.9189189189189213  0.0000000000000000 B
   0.1891891891891975  0.5135135135135154  0.0000000000000000 B
   0.7432432432432634  0.9459459459459505  0.0000000000000000 B
   0.0608108108108194  0.4864864864864882  0.0000000000000000 B
   0.8040540540540615  0.4324324324324340  0.0000000000000000 B
   0.8783783783783843  0.0270270270270283  0.0000000000000000 B
   0.0067567567567632  0.0540540540540553  0.0000000000000000 B
   0.1351351351351413  0.0810810810810823  0.0000000000000000 B
   0.2635135135135194  0.1081081081081094  0.0000000000000000 B
   0.3918918918918974  0.1351351351351364  0.0000000000000000 B
   0.5202702702702773  0.1621621621621636  0.0000000000000000 B
   0.6486486486486553  0.1891891891891906  0.0000000000000000 B
   0.7770270270270334  0.2162162162162176  0.0000000000000000 B
   0.9054054054054133  0.2432432432432448  0.0000000000000000 B
   0.0337837837837913  0.2702702702702717  0.0000000000000000 B
   0.1621621621621694  0.2972972972972987  0.0000000000000000 B
   0.2905405405405475  0.3243243243243259  0.0000000000000000 B
   0.4189189189189255  0.3513513513513529  0.0000000000000000 B
   0.5472972972973054  0.3783783783783801  0.0000000000000000 B
   0.6756756756756834  0.4054054054054070  0.0000000000000000 B
   0.9324324324324413  0.4594594594594612  0.0000000000000000 B
   0.8716216216216424  0.9729729729729777  0.0000000000000000 B
