B148
 1.000000
     3.4000000000000057   11.7779454911359949    0.0000000000000000
   -30.6000000000000227    2.9444863727840698    0.0000000000000000
     0.0000000000000000    0.0000000000000000   10.8800000000000008
B
148
Direct
   0.0000000000000000  0.0000000000000000  0.0000000000000000 B
   0.9121621621622005  0.8513513513513646  0.0000000000000000 B
   0.0270270270270672  0.8918918918919054  0.0000000000000000 B
   0.1418918918919321  0.9324324324324462  0.0000000000000000 B
   0.2567567567567970  0.9729729729729866  0.0000000000000000 B
   0.3716216216216637  0.0135135135135274  0.0000000000000000 B
   0.4864864864865268  0.0540540540540677  0.0000000000000000 B
   0.7972972972973373  0.8108108108108243  0.0000000000000000 B
   0.6013513513513935  0.0945945945946089  0.0000000000000000 B
   0.8310810810811233  0.1756756756756896  0.0000000000000000 B
   0.9459459459459882  0.2162162162162309  0.0000000000000000 B
   0.0608108108108549  0.2567567567567721  0.0000000000000000 B
   0.1756756756757198  0.2972972972973116  0.0000000000000000 B
   0.2905405405405848  0.3378378378378528  0.0000000000000000 B
   0.4054054054054514  0.3783783783783941  0.0000000000000000 B
   0.7162162162162584  0.1351351351351493  0.0000000000000000 B
   0.6824324324324706  0.7702702702702831  0.0000000000000000 B
   0.5675675675676075  0.7297297297297431  0.0000000000000000 B
   0.4527027027027408  0.6891891891892019  0.0000000000000000 B
   0.7297297297297618  0.0810810810810922  0.0000000000000000 B
   0.8445945945946267  0.1216216216216321  0.0000000000000000 B
   0.9594594594594916  0.1621621621621734  0.0000000000000000 B
   0.0743243243243565  0.2027027027027137  0.0000000000000000 B
   0.1891891891892232  0.2432432432432545  0.0000000000000000 B
   0.3040540540540881  0.2837837837837953  0.0000000000000000 B
   0.4189189189189531  0.3243243243243357  0.0000000000000000 B
   0.5337837837838180  0.3648648648648765  0.0000000000000000 B
   0.6486486486486829  0.4054054054054168  0.0000000000000000 B
   0.7635135135135478  0.4459459459459576  0.0000000000000000 B
   0.8783783783784145  0.4864864864864988  0.0000000000000000 B
   0.9932432432432794  0.5270270270270392  0.0000000000000000 B
   0.1081081081081443  0.5675675675675800  0.0000000000000000 B
   0.2229729729730110  0.6081081081081208  0.0000000000000000 B
   0.3378378378378741  0.6486486486486611  0.0000000000000000 B
   0.5202702702703146  0.4189189189189344  0.0000000000000000 B
   0.6148648648648969  0.0405405405405510  0.0000000000000000 B
   0.6351351351351813  0.4594594594594748  0.0000000000000000 B
   0.8648648648649111  0.5405405405405563  0.0000000000000000 B
   0.1621621621622165  0.3513513513513695  0.0000000000000000 B
   0.2770270270270814  0.3918918918919108  0.0000000000000000 B
   0.3918918918919481  0.4324324324324511  0.0000000000000000 B
   0.5067567567568112  0.4729729729729915  0.0000000000000000 B
   0.6216216216216779  0.5135135135135327  0.0000000000000000 B
   0.7364864864865446  0.5540540540540739  0.0000000000000000 B
   0.0472972972973515  0.3108108108108292  0.0000000000000000 B
   0.8513513513514077  0.5945945945946134  0.0000000000000000 B
   0.0810810810811411  0.6756756756756959  0.0000000000000000 B
   0.1959459459460042  0.7162162162162362  0.0000000000000000 B
   0.3108108108108709  0.7567567567567766  0.0000000000000000 B
   0.4256756756757341  0.7972972972973169  0.0000000000000000 B
   0.5405405405406007  0.8378378378378581  0.0000000000000000 B
   0.6554054054054674  0.8783783783783994  0.0000000000000000 B
   0.9662162162162744  0.6351351351351546  0.0000000000000000 B
   0.9324324324324866  0.2702702702702879  0.0000000000000000 B
   0.8175675675676217  0.2297297297297485  0.0000000000000000 B
   0.7027027027027550  0.1891891891892072  0.0000000000000000 B
   0.9797297297297778  0.5810810810810976  0.0000000000000000 B
   0.0945945945946409  0.6216216216216370  0.0000000000000000 B
   0.2094594594595076  0.6621621621621783  0.0000000000000000 B
   0.3243243243243707  0.7027027027027186  0.0000000000000000 B
   0.4391891891892374  0.7432432432432599  0.0000000000000000 B
   0.5540540540541041  0.7837837837838002  0.0000000000000000 B
   0.6689189189189673  0.8243243243243406  0.0000000000000000 B
   0.7837837837838340  0.8648648648648818  0.0000000000000000 B
   0.8986486486486989  0.9054054054054230  0.0000000000000000 B
   0.0135135135135638  0.9459459459459625  0.0000000000000000 B
   0.1283783783784305  0.9864864864865037  0.0000000000000000 B
   0.2432432432432954  0.0270270270270450  0.0000000000000000 B
   0.3581081081081603  0.0675675675675853  0.0000000000000000 B
   0.4729729729730252  0.1081081081081257  0.0000000000000000 B
   0.5878378378378901  0.1486486486486660  0.0000000000000000 B
   0.7500000000000462  0.5000000000000151  0.0000000000000000 B
   0.5000000000000302  0.0000000000000102  0.0000000000000000 B
   0.3851351351351653  0.9594594594594694  0.0000000000000000 B
   0.2702702702703004  0.9189189189189291  0.0000000000000000 B
   0.2972972972973058  0.8108108108108136  0.0000000000000000 B
   0.4121621621621707  0.8513513513513542  0.0000000000000000 B
   0.5270270270270361  0.8918918918918950  0.0000000000000000 B
   0.6418918918919019  0.9324324324324358  0.0000000000000000 B
   0.7567567567567668  0.9729729729729764  0.0000000000000000 B
   0.8716216216216317  0.0135135135135169  0.0000000000000000 B
   0.1824324324324405  0.7702702702702731  0.0000000000000000 B
   0.9864864864864971  0.0540540540540577  0.0000000000000000 B
   0.2162162162162278  0.1351351351351391  0.0000000000000000 B
   0.3310810810810927  0.1756756756756797  0.0000000000000000 B
   0.4459459459459585  0.2162162162162204  0.0000000000000000 B
   0.5608108108108238  0.2567567567567612  0.0000000000000000 B
   0.6756756756756888  0.2972972972973018  0.0000000000000000 B
   0.7905405405405541  0.3378378378378424  0.0000000000000000 B
   0.1013513513513629  0.0945945945945985  0.0000000000000000 B
   0.0675675675675751  0.7297297297297323  0.0000000000000000 B
   0.9527027027027097  0.6891891891891916  0.0000000000000000 B
   0.8378378378378444  0.6486486486486509  0.0000000000000000 B
   0.1148648648648653  0.0405405405405407  0.0000000000000000 B
   0.2297297297297305  0.0810810810810814  0.0000000000000000 B
   0.3445945945945958  0.1216216216216220  0.0000000000000000 B
   0.4594594594594611  0.1621621621621627  0.0000000000000000 B
   0.5743243243243265  0.2027027027027034  0.0000000000000000 B
   0.6891891891891917  0.2432432432432441  0.0000000000000000 B
   0.8040540540540569  0.2837837837837848  0.0000000000000000 B
   0.9189189189189222  0.3243243243243255  0.0000000000000000 B
   0.0337837837837875  0.3648648648648661  0.0000000000000000 B
   0.1486486486486529  0.4054054054054068  0.0000000000000000 B
   0.2635135135135180  0.4459459459459475  0.0000000000000000 B
   0.3783783783783834  0.4864864864864882  0.0000000000000000 B
   0.4932432432432485  0.5270270270270289  0.0000000000000000 B
   0.6081081081081139  0.5675675675675695  0.0000000000000000 B
   0.7229729729729792  0.6081081081081102  0.0000000000000000 B
   0.9054054054054195  0.3783783783783832  0.0000000000000000 B
   0.0202702702702853  0.4189189189189240  0.0000000000000000 B
   0.1351351351351502  0.4594594594594645  0.0000000000000000 B
   0.2500000000000151  0.5000000000000051  0.0000000000000000 B
   0.5472972972973205  0.3108108108108185  0.0000000000000000 B
   0.6621621621621854  0.3513513513513593  0.0000000000000000 B
   0.7770270270270521  0.3918918918919001  0.0000000000000000 B
   0.8918918918919170  0.4324324324324409  0.0000000000000000 B
   0.0067567567567819  0.4729729729729812  0.0000000000000000 B
   0.1216216216216477  0.5135135135135225  0.0000000000000000 B
   0.2364864864865126  0.5540540540540628  0.0000000000000000 B
   0.3513513513513775  0.5945945945946036  0.0000000000000000 B
   0.4662162162162433  0.6351351351351440  0.0000000000000000 B
   0.5810810810811082  0.6756756756756848  0.0000000000000000 B
   0.6959459459459740  0.7162162162162256  0.0000000000000000 B
   0.8108108108108389  0.7567567567567663  0.0000000000000000 B
   0.9256756756757039  0.7972972972973067  0.0000000000000000 B
   0.0405405405405705  0.8378378378378479  0.0000000000000000 B
   0.1554054054054355  0.8783783783783883  0.0000000000000000 B
   0.4324324324324555  0.2702702702702782  0.0000000000000000 B
   0.7702702702703306  0.9189189189189388  0.0000000000000000 B
   0.3175675675675906  0.2297297297297374  0.0000000000000000 B
   0.0878378378378599  0.1486486486486558  0.0000000000000000 B
   0.3648648648648809  0.5405405405405461  0.0000000000000000 B
   0.4797297297297458  0.5810810810810867  0.0000000000000000 B
   0.5945945945946116  0.6216216216216273  0.0000000000000000 B
   0.7094594594594765  0.6621621621621678  0.0000000000000000 B
   0.8243243243243414  0.7027027027027084  0.0000000000000000 B
   0.9391891891892072  0.7432432432432494  0.0000000000000000 B
   0.0540540540540722  0.7837837837837900  0.0000000000000000 B
   0.1689189189189371  0.8243243243243306  0.0000000000000000 B
   0.2837837837838038  0.8648648648648716  0.0000000000000000 B
   0.3986486486486687  0.9054054054054121  0.0000000000000000 B
   0.5135135135135336  0.9459459459459527  0.0000000000000000 B
   0.6283783783783985  0.9864864864864933  0.0000000000000000 B
   0.7432432432432634  0.0270270270270339  0.0000000000000000 B
   0.8581081081081292  0.0675675675675746  0.0000000000000000 B
   0.9729729729729941  0.1081081081081154  0.0000000000000000 B
   0.2027027027027257  0.1891891891891970  0.0000000000000000 B
   0.8851351351351973  0.9594594594594801  0.0000000000000000 B
