B24
 1
15.300000 0.000000 0.000000
0.000000 11.760000 0.000000
0.000000 0.000000 12.000000
B
72
Direct
0.000000 0.000000 0.000000
0.166667 0.625000 0.000000
0.111111 0.500000 0.000000
0.055556 0.375000 0.000000
0.000000 0.250000 0.000000
0.277778 0.125000 0.000000
0.222222 0.000000 0.000000
0.166667 0.875000 0.000000
0.111111 0.750000 0.000000
0.055556 0.625000 0.000000
0.000000 0.500000 0.000000
0.277778 0.375000 0.000000
0.222222 0.250000 0.000000
0.166667 0.125000 0.000000
0.111111 0.000000 0.000000
0.055556 0.875000 0.000000
0.000000 0.750000 0.000000
0.277778 0.625000 0.000000
0.222222 0.500000 0.000000
0.166667 0.375000 0.000000
0.111111 0.250000 0.000000
0.055556 0.125000 0.000000
0.222222 0.750000 0.000000
0.277778 0.875000 0.000000
0.333333 0.000000 0.000000
0.500000 0.625000 0.000000
0.444444 0.500000 0.000000
0.388889 0.375000 0.000000
0.333333 0.250000 0.000000
0.611111 0.125000 0.000000
0.555556 0.000000 0.000000
0.500000 0.875000 0.000000
0.444444 0.750000 0.000000
0.388889 0.625000 0.000000
0.333333 0.500000 0.000000
0.611111 0.375000 0.000000
0.555556 0.250000 0.000000
0.500000 0.125000 0.000000
0.444444 0.000000 0.000000
0.388889 0.875000 0.000000
0.333333 0.750000 0.000000
0.611111 0.625000 0.000000
0.555556 0.500000 0.000000
0.500000 0.375000 0.000000
0.444444 0.250000 0.000000
0.388889 0.125000 0.000000
0.555556 0.750000 0.000000
0.611111 0.875000 0.000000
0.666667 0.000000 0.000000
0.833333 0.625000 0.000000
0.777778 0.500000 0.000000
0.722222 0.375000 0.000000
0.666667 0.250000 0.000000
0.944444 0.125000 0.000000
0.888889 0.000000 0.000000
0.833333 0.875000 0.000000
0.777778 0.750000 0.000000
0.722222 0.625000 0.000000
0.666667 0.500000 0.000000
0.944444 0.375000 0.000000
0.888889 0.250000 0.000000
0.833333 0.125000 0.000000
0.777778 0.000000 0.000000
0.722222 0.875000 0.000000
0.666667 0.750000 0.000000
0.944444 0.625000 0.000000
0.888889 0.500000 0.000000
0.833333 0.375000 0.000000
0.777778 0.250000 0.000000
0.722222 0.125000 0.000000
0.888889 0.750000 0.000000
0.944444 0.875000 0.000000
