B24
 1.47
6.936000 0.000000 0.000000
0.000000 15.993600 0.000000
0.000000 0.000000 8.160000
B
96
Direct
0.000000 0.000000 0.000000
0.250000 0.312500 0.000000
0.166667 0.250000 0.000000
0.083333 0.187500 0.000000
0.000000 0.125000 0.000000
0.416667 0.062500 0.000000
0.333333 0.000000 0.000000
0.250000 0.437500 0.000000
0.166667 0.375000 0.000000
0.083333 0.312500 0.000000
0.000000 0.250000 0.000000
0.416667 0.187500 0.000000
0.333333 0.125000 0.000000
0.250000 0.062500 0.000000
0.166667 0.000000 0.000000
0.083333 0.437500 0.000000
0.000000 0.375000 0.000000
0.416667 0.312500 0.000000
0.333333 0.250000 0.000000
0.250000 0.187500 0.000000
0.166667 0.125000 0.000000
0.083333 0.062500 0.000000
0.333333 0.375000 0.000000
0.416667 0.437500 0.000000
0.000000 0.500000 0.000000
0.250000 0.812500 0.000000
0.166667 0.750000 0.000000
0.083333 0.687500 0.000000
0.000000 0.625000 0.000000
0.416667 0.562500 0.000000
0.333333 0.500000 0.000000
0.250000 0.937500 0.000000
0.166667 0.875000 0.000000
0.083333 0.812500 0.000000
0.000000 0.750000 0.000000
0.416667 0.687500 0.000000
0.333333 0.625000 0.000000
0.250000 0.562500 0.000000
0.166667 0.500000 0.000000
0.083333 0.937500 0.000000
0.000000 0.875000 0.000000
0.416667 0.812500 0.000000
0.333333 0.750000 0.000000
0.250000 0.687500 0.000000
0.166667 0.625000 0.000000
0.083333 0.562500 0.000000
0.333333 0.875000 0.000000
0.416667 0.937500 0.000000
0.500000 0.000000 0.000000
0.750000 0.312500 0.000000
0.666667 0.250000 0.000000
0.583333 0.187500 0.000000
0.500000 0.125000 0.000000
0.916667 0.062500 0.000000
0.833333 0.000000 0.000000
0.750000 0.437500 0.000000
0.666667 0.375000 0.000000
0.583333 0.312500 0.000000
0.500000 0.250000 0.000000
0.916667 0.187500 0.000000
0.833333 0.125000 0.000000
0.750000 0.062500 0.000000
0.666667 0.000000 0.000000
0.583333 0.437500 0.000000
0.500000 0.375000 0.000000
0.916667 0.312500 0.000000
0.833333 0.250000 0.000000
0.750000 0.187500 0.000000
0.666667 0.125000 0.000000
0.583333 0.062500 0.000000
0.833333 0.375000 0.000000
0.916667 0.437500 0.000000
0.500000 0.500000 0.000000
0.750000 0.812500 0.000000
0.666667 0.750000 0.000000
0.583333 0.687500 0.000000
0.500000 0.625000 0.000000
0.916667 0.562500 0.000000
0.833333 0.500000 0.000000
0.750000 0.937500 0.000000
0.666667 0.875000 0.000000
0.583333 0.812500 0.000000
0.500000 0.750000 0.000000
0.916667 0.687500 0.000000
0.833333 0.625000 0.000000
0.750000 0.562500 0.000000
0.666667 0.500000 0.000000
0.583333 0.937500 0.000000
0.500000 0.875000 0.000000
0.916667 0.812500 0.000000
0.833333 0.750000 0.000000
0.750000 0.687500 0.000000
0.666667 0.625000 0.000000
0.583333 0.562500 0.000000
0.833333 0.875000 0.000000
0.916667 0.937500 0.000000
