B60
 0.68
5.000000 -17.320508 -0.000000
-26.250000 -6.495191 -0.000000
-0.000000 -0.000000 -16.000000
B
90
Direct
0.000000 0.000000 0.000000
0.133333 0.311111 0.000000
0.266667 0.288889 0.000000
0.400000 0.266667 0.000000
0.033333 0.244444 0.000000
0.166667 0.222222 0.000000
0.300000 0.200000 0.000000
0.433333 0.177778 0.000000
0.066667 0.155556 0.000000
0.200000 0.133333 0.000000
0.333333 0.111111 0.000000
0.466667 0.088889 0.000000
0.100000 0.066667 0.000000
0.233333 0.044444 0.000000
0.366667 0.022222 0.000000
0.000000 0.333333 0.000000
0.133333 0.644444 0.000000
0.266667 0.622222 0.000000
0.400000 0.600000 0.000000
0.033333 0.577778 0.000000
0.166667 0.555556 0.000000
0.300000 0.533333 0.000000
0.433333 0.511111 0.000000
0.066667 0.488889 0.000000
0.200000 0.466667 0.000000
0.333333 0.444444 0.000000
0.466667 0.422222 0.000000
0.100000 0.400000 0.000000
0.233333 0.377778 0.000000
0.366667 0.355556 0.000000
0.000000 0.666667 0.000000
0.133333 0.977778 0.000000
0.266667 0.955556 0.000000
0.400000 0.933333 0.000000
0.033333 0.911111 0.000000
0.166667 0.888889 0.000000
0.300000 0.866667 0.000000
0.433333 0.844444 0.000000
0.066667 0.822222 0.000000
0.200000 0.800000 0.000000
0.333333 0.777778 0.000000
0.466667 0.755556 0.000000
0.100000 0.733333 0.000000
0.233333 0.711111 0.000000
0.366667 0.688889 0.000000
0.500000 0.000000 0.000000
0.633333 0.311111 0.000000
0.766667 0.288889 0.000000
0.900000 0.266667 0.000000
0.533333 0.244444 0.000000
0.666667 0.222222 0.000000
0.800000 0.200000 0.000000
0.933333 0.177778 0.000000
0.566667 0.155556 0.000000
0.700000 0.133333 0.000000
0.833333 0.111111 0.000000
0.966667 0.088889 0.000000
0.600000 0.066667 0.000000
0.733333 0.044444 0.000000
0.866667 0.022222 0.000000
0.500000 0.333333 0.000000
0.633333 0.644444 0.000000
0.766667 0.622222 0.000000
0.900000 0.600000 0.000000
0.533333 0.577778 0.000000
0.666667 0.555556 0.000000
0.800000 0.533333 0.000000
0.933333 0.511111 0.000000
0.566667 0.488889 0.000000
0.700000 0.466667 0.000000
0.833333 0.444444 0.000000
0.966667 0.422222 0.000000
0.600000 0.400000 0.000000
0.733333 0.377778 0.000000
0.866667 0.355556 0.000000
0.500000 0.666667 0.000000
0.633333 0.977778 0.000000
0.766667 0.955556 0.000000
0.900000 0.933333 0.000000
0.533333 0.911111 0.000000
0.666667 0.888889 0.000000
0.800000 0.866667 0.000000
0.933333 0.844444 0.000000
0.566667 0.822222 0.000000
0.700000 0.800000 0.000000
0.833333 0.777778 0.000000
0.966667 0.755556 0.000000
0.600000 0.733333 0.000000
0.733333 0.711111 0.000000
0.866667 0.688889 0.000000