Si6
 0.68
22.500000 0.000000 0.000000
-11.250000 19.485572 0.000000
0.000000 0.000000 16.000000
Si
81
Direct
0.000000 0.000000 0.000000
-0.000000 0.111111 0.000000
0.333333 0.222222 0.000000
0.111111 0.000000 0.000000
0.111111 0.111111 0.000000
0.111111 0.222222 0.000000
0.222222 0.000000 0.000000
0.222222 0.111111 0.000000
0.222222 0.222222 0.000000
-0.000000 0.333333 0.000000
-0.000000 0.444444 0.000000
0.333333 0.555556 0.000000
0.111111 0.333333 0.000000
0.111111 0.444444 0.000000
0.111111 0.555556 0.000000
0.222222 0.333333 0.000000
0.222222 0.444444 0.000000
0.222222 0.555556 0.000000
-0.000000 0.666667 0.000000
-0.000000 0.777778 0.000000
0.333333 0.888889 0.000000
0.111111 0.666667 0.000000
0.111111 0.777778 0.000000
0.111111 0.888889 0.000000
0.222222 0.666667 0.000000
0.222222 0.777778 0.000000
0.222222 0.888889 0.000000
0.333333 0.000000 0.000000
0.333333 0.111111 0.000000
0.666667 0.222222 0.000000
0.444444 0.000000 0.000000
0.444444 0.111111 0.000000
0.444444 0.222222 0.000000
0.555556 0.000000 0.000000
0.555556 0.111111 0.000000
0.555556 0.222222 0.000000
0.333333 0.333333 0.000000
0.333333 0.444444 0.000000
0.666667 0.555556 0.000000
0.444444 0.333333 0.000000
0.444444 0.444444 0.000000
0.444444 0.555556 0.000000
0.555556 0.333333 0.000000
0.555556 0.444444 0.000000
0.555556 0.555556 0.000000
0.333333 0.666667 0.000000
0.333333 0.777778 0.000000
0.666667 0.888889 0.000000
0.444444 0.666667 0.000000
0.444444 0.777778 0.000000
0.444444 0.888889 0.000000
0.555556 0.666667 0.000000
0.555556 0.777778 0.000000
0.555556 0.888889 0.000000
0.666667 0.000000 0.000000
0.666667 0.111111 0.000000
1.000000 0.222222 0.000000
0.777778 0.000000 0.000000
0.777778 0.111111 0.000000
0.777778 0.222222 0.000000
0.888889 0.000000 0.000000
0.888889 0.111111 0.000000
0.888889 0.222222 0.000000
0.666667 0.333333 0.000000
0.666667 0.444444 0.000000
1.000000 0.555556 0.000000
0.777778 0.333333 0.000000
0.777778 0.444444 0.000000
0.777778 0.555556 0.000000
0.888889 0.333333 0.000000
0.888889 0.444444 0.000000
0.888889 0.555556 0.000000
0.666667 0.666667 0.000000
0.666667 0.777778 0.000000
1.000000 0.888889 0.000000
0.777778 0.666667 0.000000
0.777778 0.777778 0.000000
0.777778 0.888889 0.000000
0.888889 0.666667 0.000000
0.888889 0.777778 0.000000
0.888889 0.888889 0.000000
