B24
 1
     5.1000000000000014    0.0000000000000000    0.0000000000000000
     0.0000000000000000   11.7600000000000051    0.0000000000000000
     0.0000000000000000    0.0000000000000000   12.0000000000000000
B
24
Direct
   0.0000000000000000  0.0000000000000000  0.0000000000000000 B
   0.5000000000000000  0.6250000000000000  0.0000000000000000 B
   0.3333333333333330  0.5000000000000000  0.0000000000000000 B
   0.1666666666666665  0.3750000000000000  0.0000000000000000 B
   0.0000000000000000  0.2500000000000000  0.0000000000000000 B
   0.8333333333333330  0.1250000000000000  0.0000000000000000 B
   0.6666666666666665  0.0000000000000000  0.0000000000000000 B
   0.5000000000000000  0.8750000000000000  0.0000000000000000 B
   0.3333333333333330  0.7499999999999998  0.0000000000000000 B
   0.1666666666666665  0.6250000000000000  0.0000000000000000 B
   0.0000000000000000  0.5000000000000000  0.0000000000000000 B
   0.8333333333333333  0.3750000000000000  0.0000000000000000 B
   0.6666666666666665  0.2500000000000000  0.0000000000000000 B
   0.5000000000000000  0.1250000000000000  0.0000000000000000 B
   0.3333333333333333  0.0000000000000000  0.0000000000000000 B
   0.1666666666666665  0.8749999999999999  0.0000000000000000 B
   0.0000000000000000  0.7500000000000000  0.0000000000000000 B
   0.8333333333333333  0.6250000000000000  0.0000000000000000 B
   0.6666666666666666  0.5000000000000000  0.0000000000000000 B
   0.5000000000000000  0.3750000000000000  0.0000000000000000 B
   0.3333333333333333  0.2500000000000000  0.0000000000000000 B
   0.1666666666666667  0.1250000000000000  0.0000000000000000 B
   0.6666666666666665  0.7500000000000000  0.0000000000000000 B
   0.8333333333333330  0.8750000000000000  0.0000000000000000 B
