B96
 1
15.300000 0.000000 0.000000
0.000000 23.520000 0.000000
0.000000 0.000000 12.000000
B
144
Direct
0.000000 0.000000 0.000000
0.166667 0.312500 0.000000
0.111111 0.250000 0.000000
0.055556 0.187500 0.000000
0.000000 0.125000 0.000000
0.277778 0.062500 0.000000
0.222222 0.000000 0.000000
0.166667 0.437500 0.000000
0.111111 0.375000 0.000000
0.055556 0.312500 0.000000
0.000000 0.250000 0.000000
0.277778 0.187500 0.000000
0.222222 0.125000 0.000000
0.166667 0.062500 0.000000
0.111111 0.000000 0.000000
0.055556 0.437500 0.000000
0.000000 0.375000 0.000000
0.277778 0.312500 0.000000
0.222222 0.250000 0.000000
0.166667 0.187500 0.000000
0.111111 0.125000 0.000000
0.055556 0.062500 0.000000
0.222222 0.375000 0.000000
0.277778 0.437500 0.000000
0.000000 0.500000 0.000000
0.166667 0.812500 0.000000
0.111111 0.750000 0.000000
0.055556 0.687500 0.000000
0.000000 0.625000 0.000000
0.277778 0.562500 0.000000
0.222222 0.500000 0.000000
0.166667 0.937500 0.000000
0.111111 0.875000 0.000000
0.055556 0.812500 0.000000
0.000000 0.750000 0.000000
0.277778 0.687500 0.000000
0.222222 0.625000 0.000000
0.166667 0.562500 0.000000
0.111111 0.500000 0.000000
0.055556 0.937500 0.000000
0.000000 0.875000 0.000000
0.277778 0.812500 0.000000
0.222222 0.750000 0.000000
0.166667 0.687500 0.000000
0.111111 0.625000 0.000000
0.055556 0.562500 0.000000
0.222222 0.875000 0.000000
0.277778 0.937500 0.000000
0.333333 0.000000 0.000000
0.500000 0.312500 0.000000
0.444444 0.250000 0.000000
0.388889 0.187500 0.000000
0.333333 0.125000 0.000000
0.611111 0.062500 0.000000
0.555556 0.000000 0.000000
0.500000 0.437500 0.000000
0.444444 0.375000 0.000000
0.388889 0.312500 0.000000
0.333333 0.250000 0.000000
0.611111 0.187500 0.000000
0.555556 0.125000 0.000000
0.500000 0.062500 0.000000
0.444444 0.000000 0.000000
0.388889 0.437500 0.000000
0.333333 0.375000 0.000000
0.611111 0.312500 0.000000
0.555556 0.250000 0.000000
0.500000 0.187500 0.000000
0.444444 0.125000 0.000000
0.388889 0.062500 0.000000
0.555556 0.375000 0.000000
0.611111 0.437500 0.000000
0.333333 0.500000 0.000000
0.500000 0.812500 0.000000
0.444444 0.750000 0.000000
0.388889 0.687500 0.000000
0.333333 0.625000 0.000000
0.611111 0.562500 0.000000
0.555556 0.500000 0.000000
0.500000 0.937500 0.000000
0.444444 0.875000 0.000000
0.388889 0.812500 0.000000
0.333333 0.750000 0.000000
0.611111 0.687500 0.000000
0.555556 0.625000 0.000000
0.500000 0.562500 0.000000
0.444444 0.500000 0.000000
0.388889 0.937500 0.000000
0.333333 0.875000 0.000000
0.611111 0.812500 0.000000
0.555556 0.750000 0.000000
0.500000 0.687500 0.000000
0.444444 0.625000 0.000000
0.388889 0.562500 0.000000
0.555556 0.875000 0.000000
0.611111 0.937500 0.000000
0.666667 0.000000 0.000000
0.833333 0.312500 0.000000
0.777778 0.250000 0.000000
0.722222 0.187500 0.000000
0.666667 0.125000 0.000000
0.944444 0.062500 0.000000
0.888889 0.000000 0.000000
0.833333 0.437500 0.000000
0.777778 0.375000 0.000000
0.722222 0.312500 0.000000
0.666667 0.250000 0.000000
0.944444 0.187500 0.000000
0.888889 0.125000 0.000000
0.833333 0.062500 0.000000
0.777778 0.000000 0.000000
0.722222 0.437500 0.000000
0.666667 0.375000 0.000000
0.944444 0.312500 0.000000
0.888889 0.250000 0.000000
0.833333 0.187500 0.000000
0.777778 0.125000 0.000000
0.722222 0.062500 0.000000
0.888889 0.375000 0.000000
0.944444 0.437500 0.000000
0.666667 0.500000 0.000000
0.833333 0.812500 0.000000
0.777778 0.750000 0.000000
0.722222 0.687500 0.000000
0.666667 0.625000 0.000000
0.944444 0.562500 0.000000
0.888889 0.500000 0.000000
0.833333 0.937500 0.000000
0.777778 0.875000 0.000000
0.722222 0.812500 0.000000
0.666667 0.750000 0.000000
0.944444 0.687500 0.000000
0.888889 0.625000 0.000000
0.833333 0.562500 0.000000
0.777778 0.500000 0.000000
0.722222 0.937500 0.000000
0.666667 0.875000 0.000000
0.944444 0.812500 0.000000
0.888889 0.750000 0.000000
0.833333 0.687500 0.000000
0.777778 0.625000 0.000000
0.722222 0.562500 0.000000
0.888889 0.875000 0.000000
0.944444 0.937500 0.000000
