B24
 1
10.200000 0.000000 0.000000
0.000000 11.760000 0.000000
0.000000 0.000000 12.000000
B
48
Direct
0.000000 0.000000 0.000000
0.250000 0.625000 0.000000
0.166667 0.500000 0.000000
0.083333 0.375000 0.000000
0.000000 0.250000 0.000000
0.416667 0.125000 0.000000
0.333333 0.000000 0.000000
0.250000 0.875000 0.000000
0.166667 0.750000 0.000000
0.083333 0.625000 0.000000
0.000000 0.500000 0.000000
0.416667 0.375000 0.000000
0.333333 0.250000 0.000000
0.250000 0.125000 0.000000
0.166667 0.000000 0.000000
0.083333 0.875000 0.000000
0.000000 0.750000 0.000000
0.416667 0.625000 0.000000
0.333333 0.500000 0.000000
0.250000 0.375000 0.000000
0.166667 0.250000 0.000000
0.083333 0.125000 0.000000
0.333333 0.750000 0.000000
0.416667 0.875000 0.000000
0.500000 0.000000 0.000000
0.750000 0.625000 0.000000
0.666667 0.500000 0.000000
0.583333 0.375000 0.000000
0.500000 0.250000 0.000000
0.916667 0.125000 0.000000
0.833333 0.000000 0.000000
0.750000 0.875000 0.000000
0.666667 0.750000 0.000000
0.583333 0.625000 0.000000
0.500000 0.500000 0.000000
0.916667 0.375000 0.000000
0.833333 0.250000 0.000000
0.750000 0.125000 0.000000
0.666667 0.000000 0.000000
0.583333 0.875000 0.000000
0.500000 0.750000 0.000000
0.916667 0.625000 0.000000
0.833333 0.500000 0.000000
0.750000 0.375000 0.000000
0.666667 0.250000 0.000000
0.583333 0.125000 0.000000
0.833333 0.750000 0.000000
0.916667 0.875000 0.000000
