B143
 1.000000
     3.4000000000000004   -8.8334591183519997   -0.0000000000000000
   -36.5499999999999972  -10.3057023047439884   -0.0000000000000000
    -0.0000000000000000   -0.0000000000000000  -10.8800000000000008
B
143
Direct
   0.0000000000000000  0.0000000000000000  0.0000000000000000 B
   0.9090909090909083  0.3636363636363636  0.0000000000000000 B
   0.0839160839160833  0.3566433566433567  0.0000000000000000 B
   0.2587412587412565  0.3496503496503497  0.0000000000000000 B
   0.4335664335664333  0.3426573426573427  0.0000000000000000 B
   0.6083916083916101  0.3356643356643356  0.0000000000000000 B
   0.7832167832167833  0.3286713286713286  0.0000000000000000 B
   0.7342657342657350  0.3706293706293706  0.0000000000000000 B
   0.9580419580419601  0.3216783216783217  0.0000000000000000 B
   0.3076923076923066  0.3076923076923077  0.0000000000000000 B
   0.4825174825174834  0.3006993006993007  0.0000000000000000 B
   0.6573426573426566  0.2937062937062938  0.0000000000000000 B
   0.8321678321678334  0.2867132867132867  0.0000000000000000 B
   0.0069930069930066  0.2797202797202797  0.0000000000000000 B
   0.1818181818181834  0.2727272727272727  0.0000000000000000 B
   0.1328671328671334  0.3146853146853147  0.0000000000000000 B
   0.3566433566433567  0.2657342657342657  0.0000000000000000 B
   0.5594405594405600  0.3776223776223776  0.0000000000000000 B
   0.2097902097902118  0.3916083916083916  0.0000000000000000 B
   0.7622377622377634  0.4895104895104895  0.0000000000000000 B
   0.9370629370629366  0.4825174825174825  0.0000000000000000 B
   0.1118881118881117  0.4755244755244755  0.0000000000000000 B
   0.2867132867132867  0.4685314685314685  0.0000000000000000 B
   0.4615384615384617  0.4615384615384616  0.0000000000000000 B
   0.6363636363636349  0.4545454545454546  0.0000000000000000 B
   0.3846153846153850  0.3846153846153846  0.0000000000000000 B
   0.8111888111888099  0.4475524475524476  0.0000000000000000 B
   0.1608391608391617  0.4335664335664335  0.0000000000000000 B
   0.3356643356643367  0.4265734265734266  0.0000000000000000 B
   0.5104895104895100  0.4195804195804196  0.0000000000000000 B
   0.6853146853146850  0.4125874125874126  0.0000000000000000 B
   0.8601398601398600  0.4055944055944056  0.0000000000000000 B
   0.0349650349650332  0.3986013986013986  0.0000000000000000 B
   0.9860139860139867  0.4405594405594405  0.0000000000000000 B
   0.5874125874125884  0.4965034965034965  0.0000000000000000 B
   0.5314685314685299  0.2587412587412588  0.0000000000000000 B
   0.8811188811188799  0.2447552447552448  0.0000000000000000 B
   0.2027972027972034  0.1118881118881119  0.0000000000000000 B
   0.3776223776223766  0.1048951048951049  0.0000000000000000 B
   0.5524475524475534  0.0979020979020979  0.0000000000000000 B
   0.7272727272727266  0.0909090909090909  0.0000000000000000 B
   0.9020979020978999  0.0839160839160840  0.0000000000000000 B
   0.0769230769230766  0.0769230769230769  0.0000000000000000 B
   0.0279720279720301  0.1188811188811189  0.0000000000000000 B
   0.2517482517482534  0.0699300699300699  0.0000000000000000 B
   0.6013986013985999  0.0559440559440559  0.0000000000000000 B
   0.7762237762237767  0.0489510489510490  0.0000000000000000 B
   0.9510489510489499  0.0419580419580420  0.0000000000000000 B
   0.1258741258741267  0.0349650349650350  0.0000000000000000 B
   0.3006993006993000  0.0279720279720280  0.0000000000000000 B
   0.4755244755244767  0.0209790209790209  0.0000000000000000 B
   0.4265734265734267  0.0629370629370629  0.0000000000000000 B
   0.7062937062937067  0.2517482517482518  0.0000000000000000 B
   0.8531468531468533  0.1258741258741258  0.0000000000000000 B
   0.5034965034965033  0.1398601398601399  0.0000000000000000 B
   0.0559440559440532  0.2377622377622378  0.0000000000000000 B
   0.2307692307692335  0.2307692307692307  0.0000000000000000 B
   0.4055944055944067  0.2237762237762237  0.0000000000000000 B
   0.5804195804195800  0.2167832167832168  0.0000000000000000 B
   0.7552447552447568  0.2097902097902098  0.0000000000000000 B
   0.9300699300699300  0.2027972027972028  0.0000000000000000 B
   0.6783216783216766  0.1328671328671329  0.0000000000000000 B
   0.1048951048951032  0.1958041958041958  0.0000000000000000 B
   0.4545454545454568  0.1818181818181818  0.0000000000000000 B
   0.6293706293706300  0.1748251748251748  0.0000000000000000 B
   0.8041958041958033  0.1678321678321678  0.0000000000000000 B
   0.9790209790209801  0.1608391608391608  0.0000000000000000 B
   0.1538461538461533  0.1538461538461539  0.0000000000000000 B
   0.3286713286713265  0.1468531468531469  0.0000000000000000 B
   0.2797202797202800  0.1888111888111889  0.0000000000000000 B
   0.6503496503496500  0.0139860139860140  0.0000000000000000 B
   0.4125874125874134  0.5034965034965035  0.0000000000000000 B
   0.0629370629370634  0.5174825174825175  0.0000000000000000 B
   0.3216783216783217  0.8671328671328671  0.0000000000000000 B
   0.4965034965034967  0.8601398601398601  0.0000000000000000 B
   0.6713286713286712  0.8531468531468531  0.0000000000000000 B
   0.8461538461538463  0.8461538461538461  0.0000000000000000 B
   0.0209790209790208  0.8391608391608392  0.0000000000000000 B
   0.1958041958041958  0.8321678321678322  0.0000000000000000 B
   0.1468531468531471  0.8741258741258742  0.0000000000000000 B
   0.3706293706293708  0.8251748251748252  0.0000000000000000 B
   0.7202797202797200  0.8111888111888113  0.0000000000000000 B
   0.8951048951048950  0.8041958041958042  0.0000000000000000 B
   0.0699300699300700  0.7972027972027972  0.0000000000000000 B
   0.2447552447552450  0.7902097902097902  0.0000000000000000 B
   0.4195804195804191  0.7832167832167832  0.0000000000000000 B
   0.5944055944055942  0.7762237762237763  0.0000000000000000 B
   0.5454545454545459  0.8181818181818181  0.0000000000000000 B
   0.7692307692307692  0.7692307692307692  0.0000000000000000 B
   0.9720279720279721  0.8811188811188811  0.0000000000000000 B
   0.6223776223776225  0.8951048951048951  0.0000000000000000 B
   0.1748251748251748  0.9930069930069930  0.0000000000000000 B
   0.3496503496503496  0.9860139860139860  0.0000000000000000 B
   0.5244755244755245  0.9790209790209791  0.0000000000000000 B
   0.6993006993006993  0.9720279720279720  0.0000000000000000 B
   0.8741258741258742  0.9650349650349650  0.0000000000000000 B
   0.0489510489510490  0.9580419580419580  0.0000000000000000 B
   0.7972027972027971  0.8881118881118881  0.0000000000000000 B
   0.2237762237762237  0.9510489510489510  0.0000000000000000 B
   0.5734265734265735  0.9370629370629371  0.0000000000000000 B
   0.7482517482517483  0.9300699300699301  0.0000000000000000 B
   0.9230769230769231  0.9230769230769231  0.0000000000000000 B
   0.0979020979020979  0.9160839160839160  0.0000000000000000 B
   0.2727272727272729  0.9090909090909091  0.0000000000000000 B
   0.4475524475524475  0.9020979020979021  0.0000000000000000 B
   0.3986013986013985  0.9440559440559441  0.0000000000000000 B
   0.2377622377622384  0.5104895104895104  0.0000000000000000 B
   0.9440559440559442  0.7622377622377623  0.0000000000000000 B
   0.2937062937062942  0.7482517482517482  0.0000000000000000 B
   0.6153846153846168  0.6153846153846154  0.0000000000000000 B
   0.7902097902097900  0.6083916083916083  0.0000000000000000 B
   0.9650349650349650  0.6013986013986015  0.0000000000000000 B
   0.1398601398601400  0.5944055944055944  0.0000000000000000 B
   0.3146853146853150  0.5874125874125874  0.0000000000000000 B
   0.4895104895104900  0.5804195804195804  0.0000000000000000 B
   0.4405594405594400  0.6223776223776224  0.0000000000000000 B
   0.6643356643356633  0.5734265734265734  0.0000000000000000 B
   0.0139860139860151  0.5594405594405594  0.0000000000000000 B
   0.1888111888111883  0.5524475524475525  0.0000000000000000 B
   0.3636363636363633  0.5454545454545454  0.0000000000000000 B
   0.5384615384615383  0.5384615384615384  0.0000000000000000 B
   0.7132867132867133  0.5314685314685315  0.0000000000000000 B
   0.8881118881118883  0.5244755244755245  0.0000000000000000 B
   0.8391608391608383  0.5664335664335665  0.0000000000000000 B
   0.1188811188811192  0.7552447552447552  0.0000000000000000 B
   0.2657342657342650  0.6293706293706294  0.0000000000000000 B
   0.9160839160839167  0.6433566433566433  0.0000000000000000 B
   0.4685314685314683  0.7412587412587412  0.0000000000000000 B
   0.6433566433566433  0.7342657342657343  0.0000000000000000 B
   0.8181818181818175  0.7272727272727273  0.0000000000000000 B
   0.9930069930069934  0.7202797202797202  0.0000000000000000 B
   0.1678321678321684  0.7132867132867133  0.0000000000000000 B
   0.3426573426573425  0.7062937062937062  0.0000000000000000 B
   0.0909090909090917  0.6363636363636364  0.0000000000000000 B
   0.5174825174825166  0.6993006993006994  0.0000000000000000 B
   0.8671328671328675  0.6853146853146853  0.0000000000000000 B
   0.0419580419580416  0.6783216783216783  0.0000000000000000 B
   0.2167832167832167  0.6713286713286714  0.0000000000000000 B
   0.3916083916083917  0.6643356643356644  0.0000000000000000 B
   0.5664335664335667  0.6573426573426573  0.0000000000000000 B
   0.7412587412587417  0.6503496503496504  0.0000000000000000 B
   0.6923076923076925  0.6923076923076923  0.0000000000000000 B
   0.8251748251748268  0.0069930069930070  0.0000000000000000 B
