B143
 1.000000
    -2.5500000000000003    7.3612159319600003    0.0000000000000000
   -42.5000000000000000  -17.6669182367039923    0.0000000000000000
     0.0000000000000000    0.0000000000000000   10.8800000000000008
B
143
Direct
   0.0000000000000000  0.0000000000000000  0.0000000000000000 B
   0.7272727272727266  0.6363636363636364  0.0000000000000000 B
   0.9440559440559433  0.6433566433566433  0.0000000000000000 B
   0.1608391608391599  0.6503496503496503  0.0000000000000000 B
   0.3776223776223766  0.6573426573426573  0.0000000000000000 B
   0.5944055944055968  0.6643356643356644  0.0000000000000000 B
   0.8111888111888135  0.6713286713286714  0.0000000000000000 B
   0.5104895104895100  0.6293706293706294  0.0000000000000000 B
   0.0279720279720266  0.6783216783216783  0.0000000000000000 B
   0.4615384615384599  0.6923076923076923  0.0000000000000000 B
   0.6783216783216766  0.6993006993006993  0.0000000000000000 B
   0.8951048951048932  0.7062937062937062  0.0000000000000000 B
   0.1118881118881134  0.7132867132867133  0.0000000000000000 B
   0.3286713286713301  0.7202797202797203  0.0000000000000000 B
   0.5454545454545467  0.7272727272727273  0.0000000000000000 B
   0.2447552447552432  0.6853146853146853  0.0000000000000000 B
   0.7622377622377634  0.7342657342657343  0.0000000000000000 B
   0.2937062937062933  0.6223776223776224  0.0000000000000000 B
   0.8601398601398600  0.6083916083916084  0.0000000000000000 B
   0.8251748251748268  0.5104895104895105  0.0000000000000000 B
   0.0419580419580434  0.5174825174825175  0.0000000000000000 B
   0.2587412587412601  0.5244755244755245  0.0000000000000000 B
   0.4755244755244767  0.5314685314685315  0.0000000000000000 B
   0.6923076923076898  0.5384615384615384  0.0000000000000000 B
   0.9090909090909065  0.5454545454545454  0.0000000000000000 B
   0.0769230769230766  0.6153846153846154  0.0000000000000000 B
   0.1258741258741232  0.5524475524475524  0.0000000000000000 B
   0.5594405594405600  0.5664335664335665  0.0000000000000000 B
   0.7762237762237767  0.5734265734265734  0.0000000000000000 B
   0.9930069930069934  0.5804195804195804  0.0000000000000000 B
   0.2097902097902100  0.5874125874125874  0.0000000000000000 B
   0.4265734265734267  0.5944055944055944  0.0000000000000000 B
   0.6433566433566433  0.6013986013986014  0.0000000000000000 B
   0.3426573426573434  0.5594405594405595  0.0000000000000000 B
   0.6083916083916101  0.5034965034965035  0.0000000000000000 B
   0.9790209790209801  0.7412587412587412  0.0000000000000000 B
   0.4125874125874098  0.7552447552447552  0.0000000000000000 B
   0.5314685314685335  0.8881118881118881  0.0000000000000000 B
   0.7482517482517466  0.8951048951048951  0.0000000000000000 B
   0.9650349650349632  0.9020979020979021  0.0000000000000000 B
   0.1818181818181799  0.9090909090909091  0.0000000000000000 B
   0.3986013986013965  0.9160839160839160  0.0000000000000000 B
   0.6153846153846168  0.9230769230769231  0.0000000000000000 B
   0.3146853146853168  0.8811188811188811  0.0000000000000000 B
   0.8321678321678334  0.9300699300699301  0.0000000000000000 B
   0.2657342657342667  0.9440559440559441  0.0000000000000000 B
   0.4825174825174834  0.9510489510489510  0.0000000000000000 B
   0.6993006993007000  0.9580419580419580  0.0000000000000000 B
   0.9160839160839132  0.9650349650349650  0.0000000000000000 B
   0.1328671328671298  0.9720279720279720  0.0000000000000000 B
   0.3496503496503500  0.9790209790209791  0.0000000000000000 B
   0.0489510489510501  0.9370629370629371  0.0000000000000000 B
   0.1958041958041967  0.7482517482517482  0.0000000000000000 B
   0.0979020979021001  0.8741258741258742  0.0000000000000000 B
   0.6643356643356633  0.8601398601398601  0.0000000000000000 B
   0.6293706293706265  0.7622377622377622  0.0000000000000000 B
   0.8461538461538467  0.7692307692307693  0.0000000000000000 B
   0.0629370629370634  0.7762237762237763  0.0000000000000000 B
   0.2797202797202800  0.7832167832167832  0.0000000000000000 B
   0.4965034965034967  0.7902097902097902  0.0000000000000000 B
   0.7132867132867133  0.7972027972027972  0.0000000000000000 B
   0.8811188811188799  0.8671328671328671  0.0000000000000000 B
   0.9300699300699300  0.8041958041958042  0.0000000000000000 B
   0.3636363636363669  0.8181818181818182  0.0000000000000000 B
   0.5804195804195800  0.8251748251748252  0.0000000000000000 B
   0.7972027972027966  0.8321678321678322  0.0000000000000000 B
   0.0139860139860133  0.8391608391608392  0.0000000000000000 B
   0.2307692307692299  0.8461538461538461  0.0000000000000000 B
   0.4475524475524466  0.8531468531468531  0.0000000000000000 B
   0.1468531468531467  0.8111888111888111  0.0000000000000000 B
   0.5664335664335667  0.9860139860139860  0.0000000000000000 B
   0.3916083916083917  0.4965034965034965  0.0000000000000000 B
   0.9580419580419566  0.4825174825174825  0.0000000000000000 B
   0.1188811188811192  0.1328671328671329  0.0000000000000000 B
   0.3356643356643358  0.1398601398601399  0.0000000000000000 B
   0.5524475524475525  0.1468531468531468  0.0000000000000000 B
   0.7692307692307692  0.1538461538461539  0.0000000000000000 B
   0.9860139860139858  0.1608391608391608  0.0000000000000000 B
   0.2027972027972034  0.1678321678321678  0.0000000000000000 B
   0.9020979020979025  0.1258741258741259  0.0000000000000000 B
   0.4195804195804191  0.1748251748251748  0.0000000000000000 B
   0.8531468531468525  0.1888111888111888  0.0000000000000000 B
   0.0699300699300700  0.1958041958041958  0.0000000000000000 B
   0.2867132867132867  0.2027972027972028  0.0000000000000000 B
   0.5034965034965033  0.2097902097902098  0.0000000000000000 B
   0.7202797202797200  0.2167832167832168  0.0000000000000000 B
   0.9370629370629366  0.2237762237762238  0.0000000000000000 B
   0.6363636363636367  0.1818181818181818  0.0000000000000000 B
   0.1538461538461542  0.2307692307692308  0.0000000000000000 B
   0.6853146853146854  0.1188811188811189  0.0000000000000000 B
   0.2517482517482517  0.1048951048951049  0.0000000000000000 B
   0.2167832167832168  0.0069930069930070  0.0000000000000000 B
   0.4335664335664335  0.0139860139860140  0.0000000000000000 B
   0.6503496503496504  0.0209790209790210  0.0000000000000000 B
   0.8671328671328671  0.0279720279720280  0.0000000000000000 B
   0.0839160839160840  0.0349650349650350  0.0000000000000000 B
   0.3006993006993008  0.0419580419580420  0.0000000000000000 B
   0.4685314685314683  0.1118881118881119  0.0000000000000000 B
   0.5174825174825175  0.0489510489510490  0.0000000000000000 B
   0.9510489510489513  0.0629370629370629  0.0000000000000000 B
   0.1678321678321679  0.0699300699300699  0.0000000000000000 B
   0.3846153846153846  0.0769230769230769  0.0000000000000000 B
   0.6013986013986017  0.0839160839160839  0.0000000000000000 B
   0.8181818181818183  0.0909090909090909  0.0000000000000000 B
   0.0349650349650350  0.0979020979020979  0.0000000000000000 B
   0.7342657342657342  0.0559440559440559  0.0000000000000000 B
   0.1748251748251750  0.4895104895104895  0.0000000000000000 B
   0.3706293706293708  0.2377622377622378  0.0000000000000000 B
   0.8041958041958051  0.2517482517482518  0.0000000000000000 B
   0.9230769230769234  0.3846153846153846  0.0000000000000000 B
   0.1398601398601400  0.3916083916083916  0.0000000000000000 B
   0.3566433566433567  0.3986013986013986  0.0000000000000000 B
   0.5734265734265733  0.4055944055944056  0.0000000000000000 B
   0.7902097902097900  0.4125874125874126  0.0000000000000000 B
   0.0069930069930066  0.4195804195804196  0.0000000000000000 B
   0.7062937062937049  0.3776223776223776  0.0000000000000000 B
   0.2237762237762233  0.4265734265734266  0.0000000000000000 B
   0.6573426573426584  0.4405594405594406  0.0000000000000000 B
   0.8741258741258733  0.4475524475524476  0.0000000000000000 B
   0.0909090909090899  0.4545454545454545  0.0000000000000000 B
   0.3076923076923084  0.4615384615384616  0.0000000000000000 B
   0.5244755244755250  0.4685314685314685  0.0000000000000000 B
   0.7412587412587417  0.4755244755244755  0.0000000000000000 B
   0.4405594405594400  0.4335664335664335  0.0000000000000000 B
   0.5874125874125875  0.2447552447552448  0.0000000000000000 B
   0.4895104895104900  0.3706293706293706  0.0000000000000000 B
   0.0559440559440567  0.3566433566433567  0.0000000000000000 B
   0.0209790209790217  0.2587412587412588  0.0000000000000000 B
   0.2377622377622384  0.2657342657342657  0.0000000000000000 B
   0.4545454545454533  0.2727272727272727  0.0000000000000000 B
   0.6713286713286717  0.2797202797202797  0.0000000000000000 B
   0.8881118881118883  0.2867132867132867  0.0000000000000000 B
   0.1048951048951050  0.2937062937062937  0.0000000000000000 B
   0.2727272727272734  0.3636363636363636  0.0000000000000000 B
   0.3216783216783217  0.3006993006993007  0.0000000000000000 B
   0.7552447552447550  0.3146853146853147  0.0000000000000000 B
   0.9720279720279716  0.3216783216783217  0.0000000000000000 B
   0.1888111888111883  0.3286713286713286  0.0000000000000000 B
   0.4055944055944067  0.3356643356643357  0.0000000000000000 B
   0.6223776223776216  0.3426573426573427  0.0000000000000000 B
   0.8391608391608383  0.3496503496503496  0.0000000000000000 B
   0.5384615384615383  0.3076923076923077  0.0000000000000000 B
   0.7832167832167833  0.9930069930069930  0.0000000000000000 B
