B400
 1.000000
     0.8500000000000227    7.3612159319600323    0.0000000000000000
  -134.3000000000006935   14.7224318639201783    0.0000000000000000
     0.0000000000000000    0.0000000000000000   10.8800000000000008
B
400
Direct
   0.0000000000000000  0.0000000000000000  0.0000000000000000 B
   0.3199999999996948  0.0399999999999876  0.0000000000000000 B
   0.1349999999996925  0.0324999999999878  0.0000000000000000 B
   0.9499999999996973  0.0249999999999879  0.0000000000000000 B
   0.7649999999996950  0.0174999999999876  0.0000000000000000 B
   0.5799999999996999  0.0099999999999878  0.0000000000000000 B
   0.3949999999996976  0.0024999999999880  0.0000000000000000 B
   0.2099999999997024  0.9949999999999879  0.0000000000000000 B
   0.0249999999997002  0.9874999999999878  0.0000000000000000 B
   0.8399999999997050  0.9799999999999880  0.0000000000000000 B
   0.6549999999996956  0.9724999999999879  0.0000000000000000 B
   0.4699999999997075  0.9649999999999881  0.0000000000000000 B
   0.2849999999996982  0.9574999999999880  0.0000000000000000 B
   0.0999999999997030  0.9499999999999882  0.0000000000000000 B
   0.9149999999997007  0.9424999999999881  0.0000000000000000 B
   0.7299999999997056  0.9349999999999883  0.0000000000000000 B
   0.5449999999997033  0.9274999999999882  0.0000000000000000 B
   0.3599999999997081  0.9199999999999884  0.0000000000000000 B
   0.1749999999997129  0.9124999999999885  0.0000000000000000 B
   0.9899999999997107  0.9049999999999885  0.0000000000000000 B
   0.8049999999997155  0.8974999999999886  0.0000000000000000 B
   0.6199999999997132  0.8899999999999886  0.0000000000000000 B
   0.5049999999996899  0.0474999999999874  0.0000000000000000 B
   0.4349999999997181  0.8824999999999887  0.0000000000000000 B
   0.6899999999996922  0.0549999999999877  0.0000000000000000 B
   0.0599999999996896  0.0699999999999874  0.0000000000000000 B
   0.9449999999996663  0.2274999999999867  0.0000000000000000 B
   0.7599999999996641  0.2199999999999864  0.0000000000000000 B
   0.5749999999996689  0.2124999999999866  0.0000000000000000 B
   0.3899999999996666  0.2049999999999867  0.0000000000000000 B
   0.2049999999996714  0.1974999999999869  0.0000000000000000 B
   0.0199999999996692  0.1899999999999866  0.0000000000000000 B
   0.8349999999996740  0.1824999999999868  0.0000000000000000 B
   0.6499999999996717  0.1749999999999869  0.0000000000000000 B
   0.4649999999996766  0.1674999999999871  0.0000000000000000 B
   0.2799999999996672  0.1599999999999868  0.0000000000000000 B
   0.0949999999996791  0.1524999999999870  0.0000000000000000 B
   0.9099999999996697  0.1449999999999867  0.0000000000000000 B
   0.7249999999996746  0.1374999999999873  0.0000000000000000 B
   0.5399999999996723  0.1299999999999870  0.0000000000000000 B
   0.3549999999996771  0.1224999999999872  0.0000000000000000 B
   0.1699999999996749  0.1149999999999869  0.0000000000000000 B
   0.9849999999996797  0.1074999999999871  0.0000000000000000 B
   0.7999999999996845  0.0999999999999877  0.0000000000000000 B
   0.6149999999996822  0.0924999999999874  0.0000000000000000 B
   0.4299999999996871  0.0849999999999875  0.0000000000000000 B
   0.2449999999996848  0.0774999999999872  0.0000000000000000 B
   0.8749999999996874  0.0624999999999876  0.0000000000000000 B
   0.1299999999996615  0.2349999999999866  0.0000000000000000 B
   0.2499999999997158  0.8749999999999887  0.0000000000000000 B
   0.8799999999997183  0.8599999999999888  0.0000000000000000 B
   0.0699999999997516  0.6649999999999900  0.0000000000000000 B
   0.8849999999997493  0.6574999999999900  0.0000000000000000 B
   0.6999999999997542  0.6499999999999901  0.0000000000000000 B
   0.5149999999997519  0.6424999999999901  0.0000000000000000 B
   0.3299999999997567  0.6349999999999902  0.0000000000000000 B
   0.1449999999997544  0.6274999999999902  0.0000000000000000 B
   0.9599999999997593  0.6199999999999903  0.0000000000000000 B
   0.7749999999997570  0.6124999999999901  0.0000000000000000 B
   0.5899999999997618  0.6049999999999904  0.0000000000000000 B
   0.4049999999997524  0.5974999999999902  0.0000000000000000 B
   0.2199999999997644  0.5899999999999905  0.0000000000000000 B
   0.0349999999997550  0.5824999999999902  0.0000000000000000 B
   0.8499999999997598  0.5749999999999904  0.0000000000000000 B
   0.6649999999997576  0.5674999999999903  0.0000000000000000 B
   0.4799999999997624  0.5599999999999905  0.0000000000000000 B
   0.2949999999997601  0.5524999999999904  0.0000000000000000 B
   0.1099999999997650  0.5449999999999906  0.0000000000000000 B
   0.9249999999997627  0.5374999999999905  0.0000000000000000 B
   0.7399999999997675  0.5299999999999907  0.0000000000000000 B
   0.5549999999997723  0.5224999999999909  0.0000000000000000 B
   0.3699999999997701  0.5149999999999908  0.0000000000000000 B
   0.2549999999997468  0.6724999999999899  0.0000000000000000 B
   0.0649999999997206  0.8674999999999888  0.0000000000000000 B
   0.4399999999997490  0.6799999999999899  0.0000000000000000 B
   0.8099999999997465  0.6949999999999898  0.0000000000000000 B
   0.6949999999997232  0.8524999999999889  0.0000000000000000 B
   0.5099999999997209  0.8449999999999889  0.0000000000000000 B
   0.3249999999997257  0.8374999999999890  0.0000000000000000 B
   0.1399999999997235  0.8299999999999887  0.0000000000000000 B
   0.9549999999997283  0.8224999999999891  0.0000000000000000 B
   0.7699999999997260  0.8149999999999888  0.0000000000000000 B
   0.5849999999997308  0.8074999999999892  0.0000000000000000 B
   0.3999999999997286  0.7999999999999889  0.0000000000000000 B
   0.2149999999997334  0.7924999999999893  0.0000000000000000 B
   0.0299999999997240  0.7849999999999890  0.0000000000000000 B
   0.8449999999997360  0.7774999999999892  0.0000000000000000 B
   0.6599999999997266  0.7699999999999891  0.0000000000000000 B
   0.4749999999997314  0.7624999999999893  0.0000000000000000 B
   0.2899999999997291  0.7549999999999892  0.0000000000000000 B
   0.1049999999997340  0.7474999999999894  0.0000000000000000 B
   0.9199999999997317  0.7399999999999893  0.0000000000000000 B
   0.7349999999997365  0.7324999999999895  0.0000000000000000 B
   0.5499999999997414  0.7249999999999897  0.0000000000000000 B
   0.3649999999997391  0.7174999999999896  0.0000000000000000 B
   0.1799999999997439  0.7099999999999898  0.0000000000000000 B
   0.9949999999997416  0.7024999999999897  0.0000000000000000 B
   0.6249999999997442  0.6874999999999898  0.0000000000000000 B
   0.1849999999997749  0.5074999999999910  0.0000000000000000 B
   0.3149999999996638  0.2424999999999864  0.0000000000000000 B
   0.6849999999996612  0.2574999999999865  0.0000000000000000 B
   0.8199999999995811  0.7899999999999832  0.0000000000000000 B
   0.6349999999995788  0.7824999999999829  0.0000000000000000 B
   0.4499999999995765  0.7749999999999835  0.0000000000000000 B
   0.2649999999995742  0.7674999999999832  0.0000000000000000 B
   0.0799999999995862  0.7599999999999834  0.0000000000000000 B
   0.8949999999995839  0.7524999999999831  0.0000000000000000 B
   0.7099999999995816  0.7449999999999832  0.0000000000000000 B
   0.5249999999995794  0.7374999999999834  0.0000000000000000 B
   0.3399999999995913  0.7299999999999836  0.0000000000000000 B
   0.1549999999995890  0.7224999999999833  0.0000000000000000 B
   0.9699999999995867  0.7149999999999834  0.0000000000000000 B
   0.7849999999995845  0.7074999999999836  0.0000000000000000 B
   0.5999999999995964  0.6999999999999837  0.0000000000000000 B
   0.4149999999995941  0.6924999999999835  0.0000000000000000 B
   0.2299999999995919  0.6849999999999836  0.0000000000000000 B
   0.0449999999996038  0.6774999999999838  0.0000000000000000 B
   0.8599999999996015  0.6699999999999839  0.0000000000000000 B
   0.6749999999995993  0.6624999999999841  0.0000000000000000 B
   0.4899999999995970  0.6549999999999838  0.0000000000000000 B
   0.3049999999996089  0.6474999999999840  0.0000000000000000 B
   0.1199999999996066  0.6399999999999841  0.0000000000000000 B
   0.0049999999995691  0.7974999999999830  0.0000000000000000 B
   0.9349999999996044  0.6324999999999843  0.0000000000000000 B
   0.1899999999995856  0.8049999999999833  0.0000000000000000 B
   0.5599999999995759  0.8199999999999830  0.0000000000000000 B
   0.4449999999995526  0.9774999999999823  0.0000000000000000 B
   0.2599999999995504  0.9699999999999820  0.0000000000000000 B
   0.0749999999995481  0.9624999999999821  0.0000000000000000 B
   0.8899999999995458  0.9549999999999819  0.0000000000000000 B
   0.7049999999995578  0.9474999999999820  0.0000000000000000 B
   0.5199999999995555  0.9399999999999822  0.0000000000000000 B
   0.3349999999995532  0.9324999999999823  0.0000000000000000 B
   0.1499999999995509  0.9249999999999821  0.0000000000000000 B
   0.9649999999995629  0.9174999999999822  0.0000000000000000 B
   0.7799999999995606  0.9099999999999824  0.0000000000000000 B
   0.5949999999995583  0.9024999999999825  0.0000000000000000 B
   0.4099999999995561  0.8949999999999823  0.0000000000000000 B
   0.2249999999995680  0.8874999999999824  0.0000000000000000 B
   0.0399999999995657  0.8799999999999826  0.0000000000000000 B
   0.8549999999995634  0.8724999999999827  0.0000000000000000 B
   0.6699999999995754  0.8649999999999829  0.0000000000000000 B
   0.4849999999995731  0.8574999999999826  0.0000000000000000 B
   0.2999999999995708  0.8499999999999828  0.0000000000000000 B
   0.1149999999995686  0.8424999999999829  0.0000000000000000 B
   0.9299999999995805  0.8349999999999831  0.0000000000000000 B
   0.7449999999995782  0.8274999999999828  0.0000000000000000 B
   0.3749999999995737  0.8124999999999831  0.0000000000000000 B
   0.4999999999996589  0.2499999999999862  0.0000000000000000 B
   0.7499999999996021  0.6249999999999840  0.0000000000000000 B
   0.3799999999995975  0.6099999999999843  0.0000000000000000 B
   0.5699999999996379  0.4149999999999854  0.0000000000000000 B
   0.3849999999996356  0.4074999999999855  0.0000000000000000 B
   0.1999999999996405  0.3999999999999857  0.0000000000000000 B
   0.0149999999996382  0.3924999999999854  0.0000000000000000 B
   0.8299999999996430  0.3849999999999856  0.0000000000000000 B
   0.6449999999996407  0.3774999999999857  0.0000000000000000 B
   0.4599999999996456  0.3699999999999859  0.0000000000000000 B
   0.2749999999996433  0.3624999999999856  0.0000000000000000 B
   0.0899999999996481  0.3549999999999858  0.0000000000000000 B
   0.9049999999996388  0.3474999999999855  0.0000000000000000 B
   0.7199999999996507  0.3399999999999861  0.0000000000000000 B
   0.5349999999996413  0.3324999999999858  0.0000000000000000 B
   0.3499999999996461  0.3249999999999860  0.0000000000000000 B
   0.1649999999996439  0.3174999999999857  0.0000000000000000 B
   0.9799999999996487  0.3099999999999858  0.0000000000000000 B
   0.7949999999996535  0.3024999999999864  0.0000000000000000 B
   0.6099999999996513  0.2949999999999862  0.0000000000000000 B
   0.4249999999996561  0.2874999999999863  0.0000000000000000 B
   0.2399999999996538  0.2799999999999860  0.0000000000000000 B
   0.0549999999996587  0.2724999999999862  0.0000000000000000 B
   0.8699999999996564  0.2649999999999864  0.0000000000000000 B
   0.7549999999996331  0.4224999999999852  0.0000000000000000 B
   0.5649999999996140  0.6174999999999842  0.0000000000000000 B
   0.9399999999996353  0.4299999999999855  0.0000000000000000 B
   0.3099999999996328  0.4449999999999852  0.0000000000000000 B
   0.1949999999996095  0.6024999999999845  0.0000000000000000 B
   0.0099999999996072  0.5949999999999842  0.0000000000000000 B
   0.8249999999996120  0.5874999999999844  0.0000000000000000 B
   0.6399999999996098  0.5799999999999841  0.0000000000000000 B
   0.4549999999996146  0.5724999999999847  0.0000000000000000 B
   0.2699999999996123  0.5649999999999844  0.0000000000000000 B
   0.0849999999996172  0.5574999999999846  0.0000000000000000 B
   0.8999999999996149  0.5499999999999843  0.0000000000000000 B
   0.7149999999996197  0.5424999999999849  0.0000000000000000 B
   0.5299999999996103  0.5349999999999846  0.0000000000000000 B
   0.3449999999996223  0.5274999999999848  0.0000000000000000 B
   0.1599999999996129  0.5199999999999845  0.0000000000000000 B
   0.9749999999996177  0.5124999999999846  0.0000000000000000 B
   0.7899999999996155  0.5049999999999848  0.0000000000000000 B
   0.6049999999996203  0.4974999999999850  0.0000000000000000 B
   0.4199999999996251  0.4899999999999851  0.0000000000000000 B
   0.2349999999996228  0.4824999999999848  0.0000000000000000 B
   0.0499999999996277  0.4749999999999850  0.0000000000000000 B
   0.8649999999996254  0.4674999999999851  0.0000000000000000 B
   0.6799999999996302  0.4599999999999853  0.0000000000000000 B
   0.4949999999996280  0.4524999999999850  0.0000000000000000 B
   0.1249999999996305  0.4374999999999853  0.0000000000000000 B
   0.9999999999997726  0.4999999999999909  0.0000000000000000 B
   0.8149999999997704  0.4924999999999908  0.0000000000000000 B
   0.6299999999997752  0.4849999999999910  0.0000000000000000 B
   0.1349999999999181  0.5324999999999968  0.0000000000000000 B
   0.9499999999999211  0.5249999999999969  0.0000000000000000 B
   0.7649999999999224  0.5174999999999969  0.0000000000000000 B
   0.5799999999999237  0.5099999999999969  0.0000000000000000 B
   0.3949999999999250  0.5024999999999969  0.0000000000000000 B
   0.2099999999999262  0.4949999999999970  0.0000000000000000 B
   0.0249999999999257  0.4874999999999970  0.0000000000000000 B
   0.8399999999999270  0.4799999999999971  0.0000000000000000 B
   0.6549999999999283  0.4724999999999971  0.0000000000000000 B
   0.4699999999999296  0.4649999999999972  0.0000000000000000 B
   0.2849999999999309  0.4574999999999972  0.0000000000000000 B
   0.0999999999999321  0.4499999999999972  0.0000000000000000 B
   0.9149999999999316  0.4424999999999973  0.0000000000000000 B
   0.7299999999999329  0.4349999999999973  0.0000000000000000 B
   0.5449999999999360  0.4274999999999974  0.0000000000000000 B
   0.3599999999999373  0.4199999999999975  0.0000000000000000 B
   0.1749999999999385  0.4124999999999975  0.0000000000000000 B
   0.9899999999999398  0.4049999999999976  0.0000000000000000 B
   0.8049999999999411  0.3974999999999976  0.0000000000000000 B
   0.6199999999999406  0.3899999999999976  0.0000000000000000 B
   0.4349999999999419  0.3824999999999977  0.0000000000000000 B
   0.3199999999999168  0.5399999999999967  0.0000000000000000 B
   0.2499999999999432  0.3749999999999977  0.0000000000000000 B
   0.5049999999999173  0.5474999999999967  0.0000000000000000 B
   0.8749999999999147  0.5624999999999966  0.0000000000000000 B
   0.7599999999998914  0.7199999999999956  0.0000000000000000 B
   0.5749999999998927  0.7124999999999957  0.0000000000000000 B
   0.3899999999998940  0.7049999999999957  0.0000000000000000 B
   0.2049999999998953  0.6974999999999958  0.0000000000000000 B
   0.0199999999998965  0.6899999999999958  0.0000000000000000 B
   0.8349999999998978  0.6824999999999959  0.0000000000000000 B
   0.6499999999998991  0.6749999999999959  0.0000000000000000 B
   0.4649999999999004  0.6674999999999960  0.0000000000000000 B
   0.2799999999999017  0.6599999999999960  0.0000000000000000 B
   0.0949999999998994  0.6524999999999961  0.0000000000000000 B
   0.9099999999999024  0.6449999999999960  0.0000000000000000 B
   0.7249999999999037  0.6374999999999961  0.0000000000000000 B
   0.5399999999999032  0.6299999999999961  0.0000000000000000 B
   0.3549999999999063  0.6224999999999963  0.0000000000000000 B
   0.1699999999999076  0.6149999999999963  0.0000000000000000 B
   0.9849999999999088  0.6074999999999964  0.0000000000000000 B
   0.7999999999999101  0.5999999999999964  0.0000000000000000 B
   0.6149999999999114  0.5924999999999965  0.0000000000000000 B
   0.4299999999999127  0.5849999999999965  0.0000000000000000 B
   0.2449999999999122  0.5774999999999965  0.0000000000000000 B
   0.0599999999999135  0.5699999999999965  0.0000000000000000 B
   0.6899999999999160  0.5549999999999966  0.0000000000000000 B
   0.9449999999998902  0.7274999999999956  0.0000000000000000 B
   0.0649999999999444  0.3674999999999978  0.0000000000000000 B
   0.6949999999999470  0.3524999999999979  0.0000000000000000 B
   0.8849999999999758  0.1574999999999990  0.0000000000000000 B
   0.6999999999999775  0.1499999999999991  0.0000000000000000 B
   0.5149999999999784  0.1424999999999991  0.0000000000000000 B
   0.3299999999999792  0.1349999999999992  0.0000000000000000 B
   0.1449999999999809  0.1274999999999992  0.0000000000000000 B
   0.9599999999999818  0.1199999999999993  0.0000000000000000 B
   0.7749999999999830  0.1124999999999993  0.0000000000000000 B
   0.5899999999999843  0.1049999999999994  0.0000000000000000 B
   0.4049999999999851  0.0974999999999994  0.0000000000000000 B
   0.2199999999999864  0.0899999999999995  0.0000000000000000 B
   0.0349999999999877  0.0824999999999995  0.0000000000000000 B
   0.8499999999999888  0.0749999999999996  0.0000000000000000 B
   0.6649999999999896  0.0674999999999996  0.0000000000000000 B
   0.4799999999999909  0.0599999999999996  0.0000000000000000 B
   0.2949999999999922  0.0524999999999997  0.0000000000000000 B
   0.1099999999999932  0.0449999999999997  0.0000000000000000 B
   0.9249999999999944  0.0374999999999998  0.0000000000000000 B
   0.7399999999999954  0.0299999999999998  0.0000000000000000 B
   0.5549999999999966  0.0224999999999999  0.0000000000000000 B
   0.3699999999999977  0.0149999999999999  0.0000000000000000 B
   0.1849999999999989  0.0075000000000000  0.0000000000000000 B
   0.0699999999999754  0.1649999999999990  0.0000000000000000 B
   0.8799999999999457  0.3599999999999978  0.0000000000000000 B
   0.2549999999999741  0.1724999999999990  0.0000000000000000 B
   0.6249999999999716  0.1874999999999989  0.0000000000000000 B
   0.5099999999999483  0.3449999999999979  0.0000000000000000 B
   0.3249999999999496  0.3374999999999980  0.0000000000000000 B
   0.1399999999999508  0.3299999999999980  0.0000000000000000 B
   0.9549999999999512  0.3224999999999980  0.0000000000000000 B
   0.7699999999999516  0.3149999999999981  0.0000000000000000 B
   0.5849999999999538  0.3074999999999982  0.0000000000000000 B
   0.3999999999999551  0.2999999999999982  0.0000000000000000 B
   0.2149999999999563  0.2924999999999983  0.0000000000000000 B
   0.0299999999999567  0.2849999999999983  0.0000000000000000 B
   0.8449999999999580  0.2774999999999983  0.0000000000000000 B
   0.6599999999999584  0.2699999999999984  0.0000000000000000 B
   0.4749999999999606  0.2624999999999985  0.0000000000000000 B
   0.2899999999999618  0.2549999999999985  0.0000000000000000 B
   0.1049999999999631  0.2474999999999985  0.0000000000000000 B
   0.9199999999999635  0.2399999999999985  0.0000000000000000 B
   0.7349999999999648  0.2324999999999986  0.0000000000000000 B
   0.5499999999999661  0.2249999999999986  0.0000000000000000 B
   0.3649999999999665  0.2174999999999987  0.0000000000000000 B
   0.1799999999999686  0.2099999999999987  0.0000000000000000 B
   0.9949999999999699  0.2024999999999988  0.0000000000000000 B
   0.8099999999999703  0.1949999999999988  0.0000000000000000 B
   0.4399999999999729  0.1799999999999989  0.0000000000000000 B
   0.1299999999998889  0.7349999999999955  0.0000000000000000 B
   0.3149999999998876  0.7424999999999955  0.0000000000000000 B
   0.4999999999998863  0.7499999999999954  0.0000000000000000 B
   0.8199999999998049  0.2899999999999920  0.0000000000000000 B
   0.6349999999998062  0.2824999999999922  0.0000000000000000 B
   0.4499999999998074  0.2749999999999921  0.0000000000000000 B
   0.2649999999998052  0.2674999999999923  0.0000000000000000 B
   0.0799999999998064  0.2599999999999922  0.0000000000000000 B
   0.8949999999998077  0.2524999999999924  0.0000000000000000 B
   0.7099999999998126  0.2449999999999926  0.0000000000000000 B
   0.5249999999998138  0.2374999999999925  0.0000000000000000 B
   0.3399999999998151  0.2299999999999927  0.0000000000000000 B
   0.1549999999998164  0.2224999999999926  0.0000000000000000 B
   0.9699999999998177  0.2149999999999928  0.0000000000000000 B
   0.7849999999998190  0.2074999999999927  0.0000000000000000 B
   0.5999999999998202  0.1999999999999929  0.0000000000000000 B
   0.4149999999998215  0.1924999999999928  0.0000000000000000 B
   0.2299999999998228  0.1849999999999929  0.0000000000000000 B
   0.0449999999998241  0.1774999999999929  0.0000000000000000 B
   0.8599999999998253  0.1699999999999930  0.0000000000000000 B
   0.6749999999998231  0.1624999999999930  0.0000000000000000 B
   0.4899999999998244  0.1549999999999929  0.0000000000000000 B
   0.3049999999998256  0.1474999999999931  0.0000000000000000 B
   0.1199999999998269  0.1399999999999930  0.0000000000000000 B
   0.0049999999998036  0.2974999999999921  0.0000000000000000 B
   0.9349999999998282  0.1324999999999932  0.0000000000000000 B
   0.1899999999997988  0.3049999999999922  0.0000000000000000 B
   0.5599999999998033  0.3199999999999921  0.0000000000000000 B
   0.4449999999997729  0.4774999999999909  0.0000000000000000 B
   0.2599999999997777  0.4699999999999911  0.0000000000000000 B
   0.0749999999997755  0.4624999999999910  0.0000000000000000 B
   0.8899999999997803  0.4549999999999912  0.0000000000000000 B
   0.7049999999997780  0.4474999999999911  0.0000000000000000 B
   0.5199999999997829  0.4399999999999913  0.0000000000000000 B
   0.3349999999997877  0.4324999999999914  0.0000000000000000 B
   0.1499999999997854  0.4249999999999914  0.0000000000000000 B
   0.9649999999997902  0.4174999999999915  0.0000000000000000 B
   0.7799999999997880  0.4099999999999915  0.0000000000000000 B
   0.5949999999997928  0.4024999999999916  0.0000000000000000 B
   0.4099999999997905  0.3949999999999916  0.0000000000000000 B
   0.2249999999997883  0.3874999999999917  0.0000000000000000 B
   0.0399999999997931  0.3799999999999917  0.0000000000000000 B
   0.8549999999997908  0.3724999999999916  0.0000000000000000 B
   0.6699999999997956  0.3649999999999918  0.0000000000000000 B
   0.4849999999997934  0.3574999999999917  0.0000000000000000 B
   0.2999999999997982  0.3499999999999919  0.0000000000000000 B
   0.1149999999997959  0.3424999999999918  0.0000000000000000 B
   0.9299999999998008  0.3349999999999920  0.0000000000000000 B
   0.7449999999997985  0.3274999999999919  0.0000000000000000 B
   0.3749999999998010  0.3124999999999920  0.0000000000000000 B
   0.7499999999998295  0.1249999999999931  0.0000000000000000 B
   0.5649999999998307  0.1174999999999933  0.0000000000000000 B
   0.3799999999998320  0.1099999999999932  0.0000000000000000 B
   0.3849999999998630  0.9074999999999944  0.0000000000000000 B
   0.1999999999998643  0.8999999999999945  0.0000000000000000 B
   0.0149999999998620  0.8924999999999945  0.0000000000000000 B
   0.8299999999998633  0.8849999999999946  0.0000000000000000 B
   0.6449999999998646  0.8774999999999946  0.0000000000000000 B
   0.4599999999998658  0.8699999999999947  0.0000000000000000 B
   0.2749999999998707  0.8624999999999948  0.0000000000000000 B
   0.0899999999998720  0.8549999999999949  0.0000000000000000 B
   0.9049999999998732  0.8474999999999949  0.0000000000000000 B
   0.7199999999998745  0.8399999999999950  0.0000000000000000 B
   0.5349999999998758  0.8324999999999950  0.0000000000000000 B
   0.3499999999998771  0.8249999999999951  0.0000000000000000 B
   0.1649999999998784  0.8174999999999951  0.0000000000000000 B
   0.9799999999998796  0.8099999999999952  0.0000000000000000 B
   0.7949999999998809  0.8024999999999952  0.0000000000000000 B
   0.6099999999998822  0.7949999999999953  0.0000000000000000 B
   0.4249999999998799  0.7874999999999952  0.0000000000000000 B
   0.2399999999998812  0.7799999999999953  0.0000000000000000 B
   0.0549999999998825  0.7724999999999953  0.0000000000000000 B
   0.8699999999998838  0.7649999999999954  0.0000000000000000 B
   0.6849999999998850  0.7574999999999954  0.0000000000000000 B
   0.5699999999998617  0.9149999999999944  0.0000000000000000 B
   0.7549999999998604  0.9224999999999944  0.0000000000000000 B
   0.9399999999998592  0.9299999999999944  0.0000000000000000 B
   0.1249999999998579  0.9374999999999943  0.0000000000000000 B
   0.1949999999998333  0.1024999999999934  0.0000000000000000 B
   0.0099999999998346  0.0949999999999933  0.0000000000000000 B
   0.8249999999998359  0.0874999999999935  0.0000000000000000 B
   0.6399999999998336  0.0799999999999934  0.0000000000000000 B
   0.4549999999998349  0.0724999999999933  0.0000000000000000 B
   0.2699999999998361  0.0649999999999935  0.0000000000000000 B
   0.0849999999998374  0.0574999999999934  0.0000000000000000 B
   0.8999999999998423  0.0499999999999938  0.0000000000000000 B
   0.7149999999998435  0.0424999999999938  0.0000000000000000 B
   0.5299999999998448  0.0349999999999937  0.0000000000000000 B
   0.6299999999995407  0.9849999999999817  0.0000000000000000 B
   0.3449999999998461  0.0274999999999939  0.0000000000000000 B
   0.9749999999998487  0.0124999999999940  0.0000000000000000 B
   0.7899999999998499  0.0049999999999939  0.0000000000000000 B
   0.6049999999998512  0.9974999999999939  0.0000000000000000 B
   0.4199999999998525  0.9899999999999940  0.0000000000000000 B
   0.2349999999998538  0.9824999999999940  0.0000000000000000 B
   0.0499999999998515  0.9749999999999941  0.0000000000000000 B
   0.8649999999998528  0.9674999999999941  0.0000000000000000 B
   0.6799999999998541  0.9599999999999942  0.0000000000000000 B
   0.4949999999998553  0.9524999999999942  0.0000000000000000 B
   0.3099999999998566  0.9449999999999943  0.0000000000000000 B
   0.1599999999998474  0.0199999999999938  0.0000000000000000 B
   0.8149999999995572  0.9924999999999820  0.0000000000000000 B
