B400
 1.000000
   -13.6000000000000014   26.5003773550559991    0.0000000000000000
   -27.2000000000000455  -20.6114046094879768    0.0000000000000000
     0.0000000000000000    0.0000000000000000   10.8800000000000008
B
400
Direct
   0.0000000000000000  0.0000000000000000  0.0000000000000000 B
   0.6400000000000006  0.6800000000000000  0.0000000000000000 B
   0.5824999999999996  0.6775000000000000  0.0000000000000000 B
   0.5250000000000004  0.6750000000000000  0.0000000000000000 B
   0.4674999999999994  0.6725000000000000  0.0000000000000000 B
   0.4100000000000001  0.6700000000000000  0.0000000000000000 B
   0.3524999999999991  0.6675000000000000  0.0000000000000000 B
   0.2950000000000017  0.6650000000000000  0.0000000000000000 B
   0.2374999999999989  0.6625000000000000  0.0000000000000000 B
   0.1800000000000015  0.6600000000000000  0.0000000000000000 B
   0.1224999999999987  0.6575000000000000  0.0000000000000000 B
   0.0650000000000013  0.6550000000000000  0.0000000000000000 B
   0.0074999999999985  0.6525000000000000  0.0000000000000000 B
   0.9500000000000011  0.6500000000000000  0.0000000000000000 B
   0.8924999999999983  0.6475000000000000  0.0000000000000000 B
   0.8350000000000009  0.6450000000000000  0.0000000000000000 B
   0.7774999999999999  0.6425000000000000  0.0000000000000000 B
   0.7200000000000006  0.6400000000000000  0.0000000000000000 B
   0.6625000000000014  0.6375000000000001  0.0000000000000000 B
   0.6050000000000004  0.6350000000000000  0.0000000000000000 B
   0.5475000000000012  0.6325000000000001  0.0000000000000000 B
   0.4900000000000002  0.6300000000000000  0.0000000000000000 B
   0.6974999999999998  0.6825000000000000  0.0000000000000000 B
   0.4325000000000010  0.6275000000000001  0.0000000000000000 B
   0.7550000000000008  0.6850000000000001  0.0000000000000000 B
   0.8700000000000010  0.6900000000000001  0.0000000000000000 B
   0.0775000000000006  0.7425000000000000  0.0000000000000000 B
   0.0199999999999996  0.7400000000000000  0.0000000000000000 B
   0.9625000000000021  0.7375000000000000  0.0000000000000000 B
   0.9050000000000011  0.7350000000000000  0.0000000000000000 B
   0.8475000000000001  0.7325000000000000  0.0000000000000000 B
   0.7899999999999991  0.7300000000000000  0.0000000000000000 B
   0.7325000000000017  0.7275000000000000  0.0000000000000000 B
   0.6750000000000007  0.7250000000000000  0.0000000000000000 B
   0.6174999999999997  0.7225000000000000  0.0000000000000000 B
   0.5599999999999987  0.7200000000000000  0.0000000000000000 B
   0.5025000000000013  0.7175000000000000  0.0000000000000000 B
   0.4450000000000003  0.7150000000000000  0.0000000000000000 B
   0.3874999999999993  0.7125000000000000  0.0000000000000000 B
   0.3299999999999983  0.7100000000000000  0.0000000000000000 B
   0.2725000000000009  0.7075000000000000  0.0000000000000000 B
   0.2149999999999999  0.7050000000000000  0.0000000000000000 B
   0.1574999999999989  0.7025000000000000  0.0000000000000000 B
   0.1000000000000014  0.7000000000000001  0.0000000000000000 B
   0.0425000000000004  0.6975000000000000  0.0000000000000000 B
   0.9850000000000012  0.6950000000000001  0.0000000000000000 B
   0.9275000000000002  0.6925000000000000  0.0000000000000000 B
   0.8125000000000000  0.6875000000000000  0.0000000000000000 B
   0.1350000000000016  0.7450000000000000  0.0000000000000000 B
   0.3750000000000000  0.6250000000000000  0.0000000000000000 B
   0.2599999999999998  0.6200000000000000  0.0000000000000000 B
   0.7650000000000006  0.5550000000000000  0.0000000000000000 B
   0.7074999999999996  0.5525000000000000  0.0000000000000000 B
   0.6500000000000004  0.5500000000000000  0.0000000000000000 B
   0.5924999999999994  0.5475000000000000  0.0000000000000000 B
   0.5350000000000001  0.5450000000000000  0.0000000000000000 B
   0.4774999999999991  0.5425000000000000  0.0000000000000000 B
   0.4200000000000017  0.5400000000000000  0.0000000000000000 B
   0.3624999999999989  0.5375000000000000  0.0000000000000000 B
   0.3050000000000015  0.5350000000000000  0.0000000000000000 B
   0.2474999999999987  0.5325000000000000  0.0000000000000000 B
   0.1900000000000013  0.5300000000000000  0.0000000000000000 B
   0.1324999999999985  0.5275000000000000  0.0000000000000000 B
   0.0750000000000011  0.5250000000000000  0.0000000000000000 B
   0.0174999999999983  0.5225000000000000  0.0000000000000000 B
   0.9600000000000009  0.5200000000000000  0.0000000000000000 B
   0.9024999999999999  0.5175000000000000  0.0000000000000000 B
   0.8450000000000006  0.5150000000000000  0.0000000000000000 B
   0.7874999999999996  0.5125000000000000  0.0000000000000000 B
   0.7300000000000004  0.5100000000000000  0.0000000000000000 B
   0.6725000000000012  0.5075000000000001  0.0000000000000000 B
   0.6150000000000002  0.5050000000000000  0.0000000000000000 B
   0.8224999999999998  0.5575000000000000  0.0000000000000000 B
   0.3175000000000008  0.6225000000000001  0.0000000000000000 B
   0.8800000000000008  0.5600000000000001  0.0000000000000000 B
   0.9950000000000010  0.5650000000000001  0.0000000000000000 B
   0.2025000000000006  0.6175000000000000  0.0000000000000000 B
   0.1449999999999996  0.6150000000000000  0.0000000000000000 B
   0.0875000000000004  0.6125000000000000  0.0000000000000000 B
   0.0299999999999994  0.6100000000000000  0.0000000000000000 B
   0.9725000000000001  0.6075000000000000  0.0000000000000000 B
   0.9149999999999991  0.6050000000000000  0.0000000000000000 B
   0.8575000000000017  0.6025000000000000  0.0000000000000000 B
   0.7999999999999989  0.6000000000000000  0.0000000000000000 B
   0.7425000000000015  0.5975000000000000  0.0000000000000000 B
   0.6849999999999987  0.5950000000000000  0.0000000000000000 B
   0.6275000000000013  0.5925000000000000  0.0000000000000000 B
   0.5699999999999985  0.5900000000000000  0.0000000000000000 B
   0.5125000000000011  0.5875000000000000  0.0000000000000000 B
   0.4549999999999983  0.5850000000000000  0.0000000000000000 B
   0.3975000000000009  0.5825000000000000  0.0000000000000000 B
   0.3399999999999999  0.5800000000000000  0.0000000000000000 B
   0.2825000000000006  0.5775000000000000  0.0000000000000000 B
   0.2250000000000014  0.5750000000000001  0.0000000000000000 B
   0.1675000000000004  0.5725000000000000  0.0000000000000000 B
   0.1100000000000012  0.5700000000000001  0.0000000000000000 B
   0.0525000000000002  0.5675000000000000  0.0000000000000000 B
   0.9375000000000000  0.5625000000000000  0.0000000000000000 B
   0.5575000000000010  0.5025000000000001  0.0000000000000000 B
   0.1925000000000026  0.7475000000000001  0.0000000000000000 B
   0.3075000000000010  0.7525000000000001  0.0000000000000000 B
   0.3900000000000006  0.9300000000000000  0.0000000000000000 B
   0.3324999999999996  0.9275000000000000  0.0000000000000000 B
   0.2750000000000021  0.9250000000000000  0.0000000000000000 B
   0.2175000000000011  0.9225000000000000  0.0000000000000000 B
   0.1600000000000001  0.9200000000000000  0.0000000000000000 B
   0.1024999999999991  0.9175000000000000  0.0000000000000000 B
   0.0450000000000017  0.9150000000000000  0.0000000000000000 B
   0.9875000000000007  0.9125000000000000  0.0000000000000000 B
   0.9299999999999997  0.9100000000000000  0.0000000000000000 B
   0.8724999999999987  0.9075000000000000  0.0000000000000000 B
   0.8150000000000013  0.9050000000000000  0.0000000000000000 B
   0.7575000000000003  0.9025000000000000  0.0000000000000000 B
   0.6999999999999993  0.9000000000000000  0.0000000000000000 B
   0.6424999999999983  0.8975000000000000  0.0000000000000000 B
   0.5850000000000009  0.8950000000000000  0.0000000000000000 B
   0.5275000000000034  0.8925000000000001  0.0000000000000000 B
   0.4699999999999989  0.8900000000000000  0.0000000000000000 B
   0.4125000000000014  0.8875000000000001  0.0000000000000000 B
   0.3550000000000004  0.8850000000000000  0.0000000000000000 B
   0.2975000000000030  0.8825000000000001  0.0000000000000000 B
   0.2399999999999984  0.8800000000000000  0.0000000000000000 B
   0.4475000000000016  0.9325000000000000  0.0000000000000000 B
   0.1825000000000010  0.8775000000000001  0.0000000000000000 B
   0.5050000000000026  0.9350000000000001  0.0000000000000000 B
   0.6200000000000010  0.9400000000000001  0.0000000000000000 B
   0.8275000000000006  0.9925000000000000  0.0000000000000000 B
   0.7699999999999996  0.9900000000000000  0.0000000000000000 B
   0.7125000000000021  0.9875000000000000  0.0000000000000000 B
   0.6550000000000011  0.9850000000000000  0.0000000000000000 B
   0.5975000000000001  0.9825000000000000  0.0000000000000000 B
   0.5399999999999991  0.9800000000000000  0.0000000000000000 B
   0.4825000000000017  0.9775000000000000  0.0000000000000000 B
   0.4250000000000007  0.9750000000000000  0.0000000000000000 B
   0.3674999999999997  0.9725000000000000  0.0000000000000000 B
   0.3099999999999987  0.9700000000000000  0.0000000000000000 B
   0.2525000000000013  0.9675000000000000  0.0000000000000000 B
   0.1950000000000003  0.9650000000000000  0.0000000000000000 B
   0.1374999999999993  0.9625000000000000  0.0000000000000000 B
   0.0799999999999983  0.9600000000000000  0.0000000000000000 B
   0.0225000000000009  0.9575000000000000  0.0000000000000000 B
   0.9650000000000034  0.9550000000000001  0.0000000000000000 B
   0.9074999999999989  0.9525000000000000  0.0000000000000000 B
   0.8500000000000014  0.9500000000000001  0.0000000000000000 B
   0.7925000000000004  0.9475000000000000  0.0000000000000000 B
   0.7350000000000030  0.9450000000000001  0.0000000000000000 B
   0.6774999999999984  0.9425000000000000  0.0000000000000000 B
   0.5625000000000000  0.9375000000000000  0.0000000000000000 B
   0.2500000000000000  0.7500000000000000  0.0000000000000000 B
   0.1250000000000000  0.8750000000000000  0.0000000000000000 B
   0.0100000000000016  0.8700000000000000  0.0000000000000000 B
   0.5150000000000006  0.8050000000000000  0.0000000000000000 B
   0.4574999999999996  0.8025000000000000  0.0000000000000000 B
   0.4000000000000021  0.8000000000000000  0.0000000000000000 B
   0.3425000000000011  0.7975000000000000  0.0000000000000000 B
   0.2850000000000001  0.7950000000000000  0.0000000000000000 B
   0.2274999999999991  0.7925000000000000  0.0000000000000000 B
   0.1700000000000017  0.7900000000000000  0.0000000000000000 B
   0.1125000000000007  0.7875000000000000  0.0000000000000000 B
   0.0549999999999997  0.7850000000000000  0.0000000000000000 B
   0.9974999999999987  0.7825000000000000  0.0000000000000000 B
   0.9400000000000013  0.7800000000000000  0.0000000000000000 B
   0.8825000000000003  0.7775000000000000  0.0000000000000000 B
   0.8249999999999993  0.7750000000000000  0.0000000000000000 B
   0.7674999999999983  0.7725000000000000  0.0000000000000000 B
   0.7100000000000009  0.7700000000000000  0.0000000000000000 B
   0.6525000000000034  0.7675000000000001  0.0000000000000000 B
   0.5949999999999989  0.7650000000000000  0.0000000000000000 B
   0.5375000000000014  0.7625000000000001  0.0000000000000000 B
   0.4800000000000004  0.7600000000000000  0.0000000000000000 B
   0.4225000000000030  0.7575000000000001  0.0000000000000000 B
   0.3649999999999984  0.7550000000000000  0.0000000000000000 B
   0.5725000000000016  0.8075000000000000  0.0000000000000000 B
   0.0675000000000026  0.8725000000000001  0.0000000000000000 B
   0.6300000000000026  0.8100000000000001  0.0000000000000000 B
   0.7450000000000010  0.8150000000000001  0.0000000000000000 B
   0.9525000000000006  0.8675000000000000  0.0000000000000000 B
   0.8949999999999996  0.8650000000000000  0.0000000000000000 B
   0.8375000000000021  0.8625000000000000  0.0000000000000000 B
   0.7800000000000011  0.8600000000000000  0.0000000000000000 B
   0.7225000000000001  0.8575000000000000  0.0000000000000000 B
   0.6649999999999991  0.8550000000000000  0.0000000000000000 B
   0.6075000000000017  0.8525000000000000  0.0000000000000000 B
   0.5500000000000007  0.8500000000000000  0.0000000000000000 B
   0.4924999999999997  0.8475000000000000  0.0000000000000000 B
   0.4349999999999987  0.8450000000000000  0.0000000000000000 B
   0.3775000000000013  0.8425000000000000  0.0000000000000000 B
   0.3200000000000003  0.8400000000000000  0.0000000000000000 B
   0.2624999999999993  0.8375000000000000  0.0000000000000000 B
   0.2049999999999983  0.8350000000000000  0.0000000000000000 B
   0.1475000000000009  0.8325000000000000  0.0000000000000000 B
   0.0900000000000034  0.8300000000000001  0.0000000000000000 B
   0.0324999999999989  0.8275000000000000  0.0000000000000000 B
   0.9750000000000014  0.8250000000000001  0.0000000000000000 B
   0.9175000000000004  0.8225000000000000  0.0000000000000000 B
   0.8600000000000030  0.8200000000000001  0.0000000000000000 B
   0.8024999999999984  0.8175000000000000  0.0000000000000000 B
   0.6875000000000000  0.8125000000000000  0.0000000000000000 B
   0.5000000000000000  0.5000000000000000  0.0000000000000000 B
   0.4425000000000008  0.4975000000000000  0.0000000000000000 B
   0.3849999999999998  0.4950000000000000  0.0000000000000000 B
   0.0824999999999996  0.1775000000000000  0.0000000000000000 B
   0.0250000000000004  0.1750000000000000  0.0000000000000000 B
   0.9675000000000002  0.1725000000000000  0.0000000000000000 B
   0.9100000000000001  0.1700000000000000  0.0000000000000000 B
   0.8525000000000000  0.1675000000000000  0.0000000000000000 B
   0.7950000000000004  0.1650000000000000  0.0000000000000000 B
   0.7375000000000003  0.1625000000000000  0.0000000000000000 B
   0.6800000000000002  0.1600000000000000  0.0000000000000000 B
   0.6225000000000001  0.1575000000000000  0.0000000000000000 B
   0.5649999999999999  0.1550000000000000  0.0000000000000000 B
   0.5074999999999998  0.1525000000000000  0.0000000000000000 B
   0.4499999999999997  0.1500000000000000  0.0000000000000000 B
   0.3924999999999996  0.1475000000000000  0.0000000000000000 B
   0.3350000000000000  0.1450000000000000  0.0000000000000000 B
   0.2775000000000003  0.1425000000000000  0.0000000000000000 B
   0.2200000000000002  0.1400000000000000  0.0000000000000000 B
   0.1625000000000001  0.1375000000000000  0.0000000000000000 B
   0.1050000000000004  0.1350000000000000  0.0000000000000000 B
   0.0475000000000003  0.1325000000000000  0.0000000000000000 B
   0.9900000000000002  0.1300000000000000  0.0000000000000000 B
   0.9325000000000001  0.1275000000000000  0.0000000000000000 B
   0.1399999999999997  0.1800000000000000  0.0000000000000000 B
   0.8750000000000000  0.1250000000000000  0.0000000000000000 B
   0.1974999999999998  0.1825000000000000  0.0000000000000000 B
   0.3125000000000000  0.1875000000000000  0.0000000000000000 B
   0.5199999999999996  0.2400000000000000  0.0000000000000000 B
   0.4625000000000004  0.2375000000000000  0.0000000000000000 B
   0.4050000000000002  0.2350000000000000  0.0000000000000000 B
   0.3475000000000001  0.2325000000000000  0.0000000000000000 B
   0.2900000000000000  0.2300000000000000  0.0000000000000000 B
   0.2324999999999999  0.2275000000000000  0.0000000000000000 B
   0.1749999999999998  0.2250000000000000  0.0000000000000000 B
   0.1174999999999997  0.2225000000000000  0.0000000000000000 B
   0.0599999999999996  0.2200000000000000  0.0000000000000000 B
   0.0025000000000004  0.2175000000000000  0.0000000000000000 B
   0.9450000000000003  0.2150000000000000  0.0000000000000000 B
   0.8875000000000002  0.2125000000000000  0.0000000000000000 B
   0.8300000000000001  0.2100000000000000  0.0000000000000000 B
   0.7725000000000009  0.2075000000000000  0.0000000000000000 B
   0.7150000000000007  0.2050000000000000  0.0000000000000000 B
   0.6575000000000006  0.2025000000000000  0.0000000000000000 B
   0.6000000000000005  0.2000000000000000  0.0000000000000000 B
   0.5425000000000004  0.1975000000000000  0.0000000000000000 B
   0.4850000000000003  0.1950000000000000  0.0000000000000000 B
   0.4275000000000002  0.1925000000000000  0.0000000000000000 B
   0.3700000000000001  0.1900000000000000  0.0000000000000000 B
   0.2549999999999999  0.1850000000000000  0.0000000000000000 B
   0.5774999999999997  0.2425000000000000  0.0000000000000000 B
   0.8174999999999999  0.1225000000000000  0.0000000000000000 B
   0.7025000000000001  0.1175000000000000  0.0000000000000000 B
   0.2075000000000000  0.0525000000000000  0.0000000000000000 B
   0.1500000000000001  0.0500000000000000  0.0000000000000000 B
   0.0925000000000000  0.0475000000000000  0.0000000000000000 B
   0.0349999999999999  0.0450000000000000  0.0000000000000000 B
   0.9775000000000000  0.0425000000000000  0.0000000000000000 B
   0.9200000000000000  0.0400000000000000  0.0000000000000000 B
   0.8624999999999999  0.0375000000000000  0.0000000000000000 B
   0.8050000000000000  0.0350000000000000  0.0000000000000000 B
   0.7475000000000001  0.0325000000000000  0.0000000000000000 B
   0.6899999999999999  0.0300000000000000  0.0000000000000000 B
   0.6325000000000000  0.0275000000000000  0.0000000000000000 B
   0.5750000000000001  0.0250000000000000  0.0000000000000000 B
   0.5175000000000000  0.0225000000000000  0.0000000000000000 B
   0.4600000000000000  0.0200000000000000  0.0000000000000000 B
   0.4025000000000000  0.0175000000000000  0.0000000000000000 B
   0.3450000000000000  0.0150000000000000  0.0000000000000000 B
   0.2875000000000000  0.0125000000000000  0.0000000000000000 B
   0.2300000000000000  0.0100000000000000  0.0000000000000000 B
   0.1725000000000000  0.0075000000000000  0.0000000000000000 B
   0.1150000000000000  0.0050000000000000  0.0000000000000000 B
   0.0575000000000000  0.0025000000000000  0.0000000000000000 B
   0.2649999999999999  0.0550000000000000  0.0000000000000000 B
   0.7599999999999998  0.1200000000000000  0.0000000000000000 B
   0.3225000000000000  0.0575000000000000  0.0000000000000000 B
   0.4375000000000000  0.0625000000000000  0.0000000000000000 B
   0.6450000000000000  0.1150000000000000  0.0000000000000000 B
   0.5874999999999999  0.1125000000000000  0.0000000000000000 B
   0.5299999999999998  0.1100000000000000  0.0000000000000000 B
   0.4725000000000001  0.1075000000000000  0.0000000000000000 B
   0.4150000000000000  0.1050000000000000  0.0000000000000000 B
   0.3575000000000004  0.1025000000000000  0.0000000000000000 B
   0.3000000000000003  0.1000000000000000  0.0000000000000000 B
   0.2425000000000002  0.0975000000000000  0.0000000000000000 B
   0.1850000000000001  0.0950000000000000  0.0000000000000000 B
   0.1274999999999999  0.0925000000000000  0.0000000000000000 B
   0.0699999999999998  0.0900000000000000  0.0000000000000000 B
   0.0125000000000002  0.0875000000000000  0.0000000000000000 B
   0.9550000000000001  0.0850000000000000  0.0000000000000000 B
   0.8975000000000002  0.0825000000000000  0.0000000000000000 B
   0.8400000000000001  0.0800000000000000  0.0000000000000000 B
   0.7825000000000000  0.0775000000000000  0.0000000000000000 B
   0.7249999999999999  0.0750000000000000  0.0000000000000000 B
   0.6675000000000000  0.0725000000000000  0.0000000000000000 B
   0.6100000000000001  0.0700000000000000  0.0000000000000000 B
   0.5525000000000002  0.0675000000000000  0.0000000000000000 B
   0.4950000000000001  0.0650000000000000  0.0000000000000000 B
   0.3799999999999999  0.0600000000000000  0.0000000000000000 B
   0.6349999999999998  0.2450000000000000  0.0000000000000000 B
   0.6924999999999999  0.2475000000000000  0.0000000000000000 B
   0.7500000000000000  0.2500000000000000  0.0000000000000000 B
   0.8900000000000006  0.4300000000000000  0.0000000000000000 B
   0.8324999999999996  0.4275000000000000  0.0000000000000000 B
   0.7750000000000004  0.4250000000000000  0.0000000000000000 B
   0.7174999999999994  0.4225000000000000  0.0000000000000000 B
   0.6600000000000001  0.4200000000000000  0.0000000000000000 B
   0.6024999999999991  0.4175000000000000  0.0000000000000000 B
   0.5450000000000017  0.4150000000000000  0.0000000000000000 B
   0.4875000000000007  0.4125000000000000  0.0000000000000000 B
   0.4300000000000015  0.4100000000000000  0.0000000000000000 B
   0.3725000000000005  0.4075000000000000  0.0000000000000000 B
   0.3150000000000013  0.4050000000000000  0.0000000000000000 B
   0.2575000000000003  0.4025000000000000  0.0000000000000000 B
   0.2000000000000011  0.4000000000000000  0.0000000000000000 B
   0.1425000000000001  0.3975000000000000  0.0000000000000000 B
   0.0850000000000009  0.3950000000000000  0.0000000000000000 B
   0.0274999999999999  0.3925000000000000  0.0000000000000000 B
   0.9700000000000006  0.3900000000000000  0.0000000000000000 B
   0.9124999999999996  0.3875000000000000  0.0000000000000000 B
   0.8550000000000004  0.3850000000000000  0.0000000000000000 B
   0.7974999999999994  0.3825000000000000  0.0000000000000000 B
   0.7400000000000002  0.3800000000000000  0.0000000000000000 B
   0.9474999999999998  0.4325000000000000  0.0000000000000000 B
   0.6824999999999992  0.3775000000000000  0.0000000000000000 B
   0.0050000000000008  0.4350000000000000  0.0000000000000000 B
   0.1199999999999992  0.4400000000000000  0.0000000000000000 B
   0.3275000000000006  0.4925000000000000  0.0000000000000000 B
   0.2699999999999996  0.4900000000000000  0.0000000000000000 B
   0.2125000000000004  0.4875000000000000  0.0000000000000000 B
   0.1549999999999994  0.4850000000000000  0.0000000000000000 B
   0.0975000000000001  0.4825000000000000  0.0000000000000000 B
   0.0399999999999991  0.4800000000000000  0.0000000000000000 B
   0.9825000000000017  0.4775000000000000  0.0000000000000000 B
   0.9250000000000007  0.4750000000000000  0.0000000000000000 B
   0.8675000000000015  0.4725000000000000  0.0000000000000000 B
   0.8100000000000005  0.4700000000000000  0.0000000000000000 B
   0.7525000000000013  0.4675000000000000  0.0000000000000000 B
   0.6950000000000003  0.4650000000000000  0.0000000000000000 B
   0.6375000000000011  0.4625000000000000  0.0000000000000000 B
   0.5800000000000001  0.4600000000000000  0.0000000000000000 B
   0.5225000000000009  0.4575000000000000  0.0000000000000000 B
   0.4649999999999999  0.4550000000000000  0.0000000000000000 B
   0.4075000000000006  0.4525000000000000  0.0000000000000000 B
   0.3499999999999996  0.4500000000000000  0.0000000000000000 B
   0.2925000000000004  0.4475000000000000  0.0000000000000000 B
   0.2349999999999994  0.4450000000000000  0.0000000000000000 B
   0.1775000000000002  0.4425000000000000  0.0000000000000000 B
   0.0625000000000000  0.4375000000000000  0.0000000000000000 B
   0.6250000000000000  0.3750000000000000  0.0000000000000000 B
   0.5675000000000008  0.3725000000000000  0.0000000000000000 B
   0.5099999999999998  0.3700000000000000  0.0000000000000000 B
   0.9574999999999996  0.3025000000000000  0.0000000000000000 B
   0.8999999999999995  0.3000000000000000  0.0000000000000000 B
   0.8424999999999994  0.2975000000000000  0.0000000000000000 B
   0.7849999999999993  0.2950000000000000  0.0000000000000000 B
   0.7274999999999991  0.2925000000000000  0.0000000000000000 B
   0.6699999999999999  0.2900000000000000  0.0000000000000000 B
   0.6125000000000007  0.2875000000000000  0.0000000000000000 B
   0.5550000000000006  0.2850000000000000  0.0000000000000000 B
   0.4975000000000005  0.2825000000000000  0.0000000000000000 B
   0.4400000000000004  0.2800000000000000  0.0000000000000000 B
   0.3825000000000003  0.2775000000000000  0.0000000000000000 B
   0.3250000000000002  0.2750000000000000  0.0000000000000000 B
   0.2675000000000001  0.2725000000000000  0.0000000000000000 B
   0.2100000000000009  0.2700000000000000  0.0000000000000000 B
   0.1525000000000007  0.2675000000000000  0.0000000000000000 B
   0.0950000000000006  0.2650000000000000  0.0000000000000000 B
   0.0375000000000005  0.2625000000000000  0.0000000000000000 B
   0.9800000000000004  0.2600000000000000  0.0000000000000000 B
   0.9225000000000003  0.2575000000000000  0.0000000000000000 B
   0.8650000000000002  0.2550000000000000  0.0000000000000000 B
   0.8075000000000001  0.2525000000000000  0.0000000000000000 B
   0.0149999999999997  0.3050000000000000  0.0000000000000000 B
   0.0724999999999998  0.3075000000000000  0.0000000000000000 B
   0.1299999999999999  0.3100000000000000  0.0000000000000000 B
   0.1875000000000000  0.3125000000000000  0.0000000000000000 B
   0.4525000000000006  0.3675000000000000  0.0000000000000000 B
   0.3949999999999996  0.3650000000000000  0.0000000000000000 B
   0.3375000000000004  0.3625000000000000  0.0000000000000000 B
   0.2799999999999994  0.3600000000000000  0.0000000000000000 B
   0.2225000000000001  0.3575000000000000  0.0000000000000000 B
   0.1649999999999991  0.3550000000000000  0.0000000000000000 B
   0.1074999999999999  0.3525000000000000  0.0000000000000000 B
   0.0500000000000007  0.3500000000000000  0.0000000000000000 B
   0.9925000000000006  0.3475000000000000  0.0000000000000000 B
   0.9350000000000005  0.3450000000000000  0.0000000000000000 B
   0.8850000000000016  0.9950000000000000  0.0000000000000000 B
   0.8775000000000004  0.3425000000000000  0.0000000000000000 B
   0.7625000000000002  0.3375000000000000  0.0000000000000000 B
   0.7050000000000001  0.3350000000000000  0.0000000000000000 B
   0.6475000000000009  0.3325000000000000  0.0000000000000000 B
   0.5900000000000007  0.3300000000000000  0.0000000000000000 B
   0.5325000000000006  0.3275000000000000  0.0000000000000000 B
   0.4750000000000005  0.3250000000000000  0.0000000000000000 B
   0.4175000000000004  0.3225000000000000  0.0000000000000000 B
   0.3600000000000003  0.3200000000000000  0.0000000000000000 B
   0.3025000000000002  0.3175000000000000  0.0000000000000000 B
   0.2450000000000001  0.3150000000000000  0.0000000000000000 B
   0.8200000000000003  0.3400000000000000  0.0000000000000000 B
   0.9425000000000026  0.9975000000000001  0.0000000000000000 B
