B150
 1.000000
   -14.4499999999999886   -7.3612159319600323   -0.0000000000000000
    -7.6499999999999915   22.0836477958799833   -0.0000000000000000
    -0.0000000000000000   -0.0000000000000000  -10.8800000000000008
B
150
Direct
   0.0000000000000000  0.0000000000000000  0.0000000000000000 B
   0.0799999999999983  0.9599999999999929  0.0000000000000000 B
   0.0599999999999981  0.8866666666666587  0.0000000000000000 B
   0.0399999999999983  0.8133333333333264  0.0000000000000000 B
   0.0199999999999982  0.7399999999999922  0.0000000000000000 B
   0.9999999999999978  0.6666666666666590  0.0000000000000000 B
   0.9799999999999982  0.5933333333333257  0.0000000000000000 B
   0.0999999999999981  0.0333333333333261  0.0000000000000000 B
   0.9599999999999982  0.5199999999999925  0.0000000000000000 B
   0.9199999999999982  0.3733333333333260  0.0000000000000000 B
   0.8999999999999981  0.2999999999999918  0.0000000000000000 B
   0.8799999999999981  0.2266666666666595  0.0000000000000000 B
   0.8599999999999981  0.1533333333333253  0.0000000000000000 B
   0.8399999999999976  0.0799999999999912  0.0000000000000000 B
   0.8199999999999981  0.0066666666666588  0.0000000000000000 B
   0.9399999999999977  0.4466666666666583  0.0000000000000000 B
   0.1199999999999981  0.1066666666666594  0.0000000000000000 B
   0.1399999999999983  0.1799999999999935  0.0000000000000000 B
   0.1599999999999981  0.2533333333333259  0.0000000000000000 B
   0.4599999999999984  0.3533333333333273  0.0000000000000000 B
   0.4399999999999986  0.2799999999999940  0.0000000000000000 B
   0.4199999999999984  0.2066666666666608  0.0000000000000000 B
   0.3999999999999986  0.1333333333333275  0.0000000000000000 B
   0.3799999999999986  0.0599999999999943  0.0000000000000000 B
   0.3599999999999983  0.9866666666666601  0.0000000000000000 B
   0.3399999999999985  0.9133333333333269  0.0000000000000000 B
   0.3199999999999983  0.8399999999999936  0.0000000000000000 B
   0.2999999999999985  0.7666666666666604  0.0000000000000000 B
   0.2799999999999985  0.6933333333333271  0.0000000000000000 B
   0.2599999999999982  0.6199999999999930  0.0000000000000000 B
   0.2399999999999984  0.5466666666666606  0.0000000000000000 B
   0.2199999999999982  0.4733333333333265  0.0000000000000000 B
   0.1999999999999982  0.3999999999999924  0.0000000000000000 B
   0.1799999999999984  0.3266666666666600  0.0000000000000000 B
   0.7999999999999980  0.9333333333333247  0.0000000000000000 B
   0.7799999999999976  0.8599999999999905  0.0000000000000000 B
   0.7599999999999980  0.7866666666666582  0.0000000000000000 B
   0.7399999999999975  0.7133333333333240  0.0000000000000000 B
   0.3399999999999976  0.2466666666666573  0.0000000000000000 B
   0.3199999999999972  0.1733333333333231  0.0000000000000000 B
   0.2999999999999976  0.0999999999999908  0.0000000000000000 B
   0.2799999999999976  0.0266666666666566  0.0000000000000000 B
   0.2599999999999971  0.9533333333333225  0.0000000000000000 B
   0.2399999999999975  0.8799999999999901  0.0000000000000000 B
   0.2199999999999971  0.8066666666666560  0.0000000000000000 B
   0.1999999999999975  0.7333333333333236  0.0000000000000000 B
   0.1799999999999975  0.6599999999999895  0.0000000000000000 B
   0.1599999999999970  0.5866666666666553  0.0000000000000000 B
   0.1399999999999975  0.5133333333333230  0.0000000000000000 B
   0.1199999999999970  0.4399999999999888  0.0000000000000000 B
   0.0999999999999974  0.3666666666666565  0.0000000000000000 B
   0.0799999999999974  0.2933333333333223  0.0000000000000000 B
   0.0599999999999969  0.2199999999999882  0.0000000000000000 B
   0.3599999999999977  0.3199999999999914  0.0000000000000000 B
   0.4799999999999984  0.4266666666666605  0.0000000000000000 B
   0.3799999999999977  0.3933333333333238  0.0000000000000000 B
   0.4199999999999973  0.5399999999999903  0.0000000000000000 B
   0.7199999999999980  0.6399999999999917  0.0000000000000000 B
   0.6999999999999980  0.5666666666666575  0.0000000000000000 B
   0.6799999999999975  0.4933333333333234  0.0000000000000000 B
   0.6599999999999979  0.4199999999999910  0.0000000000000000 B
   0.6399999999999979  0.3466666666666569  0.0000000000000000 B
   0.6199999999999979  0.2733333333333245  0.0000000000000000 B
   0.5999999999999979  0.1999999999999904  0.0000000000000000 B
   0.5799999999999974  0.1266666666666563  0.0000000000000000 B
   0.5599999999999978  0.0533333333333239  0.0000000000000000 B
   0.5399999999999978  0.9799999999999898  0.0000000000000000 B
   0.5199999999999974  0.9066666666666574  0.0000000000000000 B
   0.4999999999999978  0.8333333333333233  0.0000000000000000 B
   0.4799999999999973  0.7599999999999909  0.0000000000000000 B
   0.4599999999999977  0.6866666666666568  0.0000000000000000 B
   0.4399999999999977  0.6133333333333244  0.0000000000000000 B
   0.3999999999999977  0.4666666666666579  0.0000000000000000 B
   0.4999999999999987  0.4999999999999947  0.0000000000000000 B
   0.5199999999999987  0.5733333333333279  0.0000000000000000 B
   0.5399999999999987  0.6466666666666612  0.0000000000000000 B
   0.5999999999999996  0.5333333333333319  0.0000000000000000 B
   0.5799999999999996  0.4599999999999984  0.0000000000000000 B
   0.5599999999999996  0.3866666666666652  0.0000000000000000 B
   0.5399999999999996  0.3133333333333315  0.0000000000000000 B
   0.5199999999999996  0.2399999999999982  0.0000000000000000 B
   0.4999999999999994  0.1666666666666647  0.0000000000000000 B
   0.4799999999999995  0.0933333333333315  0.0000000000000000 B
   0.4599999999999994  0.0199999999999978  0.0000000000000000 B
   0.4399999999999995  0.9466666666666645  0.0000000000000000 B
   0.4199999999999994  0.8733333333333309  0.0000000000000000 B
   0.3999999999999995  0.7999999999999976  0.0000000000000000 B
   0.3799999999999993  0.7266666666666644  0.0000000000000000 B
   0.3599999999999994  0.6533333333333311  0.0000000000000000 B
   0.3399999999999994  0.5799999999999979  0.0000000000000000 B
   0.3199999999999994  0.5066666666666642  0.0000000000000000 B
   0.6199999999999997  0.6066666666666651  0.0000000000000000 B
   0.2999999999999994  0.4333333333333309  0.0000000000000000 B
   0.6399999999999997  0.6799999999999986  0.0000000000000000 B
   0.6799999999999997  0.8266666666666656  0.0000000000000000 B
   0.9800000000000000  0.9266666666666666  0.0000000000000000 B
   0.9600000000000000  0.8533333333333332  0.0000000000000000 B
   0.9399999999999999  0.7799999999999998  0.0000000000000000 B
   0.9199999999999999  0.7066666666666663  0.0000000000000000 B
   0.8999999999999999  0.6333333333333330  0.0000000000000000 B
   0.8799999999999999  0.5599999999999996  0.0000000000000000 B
   0.8599999999999999  0.4866666666666661  0.0000000000000000 B
   0.8399999999999999  0.4133333333333328  0.0000000000000000 B
   0.8199999999999998  0.3399999999999993  0.0000000000000000 B
   0.7999999999999998  0.2666666666666659  0.0000000000000000 B
   0.7799999999999998  0.1933333333333326  0.0000000000000000 B
   0.7599999999999998  0.1199999999999991  0.0000000000000000 B
   0.7399999999999998  0.0466666666666657  0.0000000000000000 B
   0.7199999999999998  0.9733333333333323  0.0000000000000000 B
   0.6999999999999997  0.8999999999999988  0.0000000000000000 B
   0.6599999999999997  0.7533333333333321  0.0000000000000000 B
   0.0399999999999974  0.1466666666666558  0.0000000000000000 B
   0.2799999999999992  0.3599999999999972  0.0000000000000000 B
   0.2399999999999992  0.2133333333333303  0.0000000000000000 B
   0.8399999999999987  0.7466666666666617  0.0000000000000000 B
   0.8199999999999990  0.6733333333333285  0.0000000000000000 B
   0.7999999999999989  0.5999999999999952  0.0000000000000000 B
   0.7799999999999989  0.5266666666666620  0.0000000000000000 B
   0.7599999999999987  0.4533333333333287  0.0000000000000000 B
   0.7399999999999987  0.3799999999999955  0.0000000000000000 B
   0.7199999999999989  0.3066666666666622  0.0000000000000000 B
   0.6999999999999988  0.2333333333333290  0.0000000000000000 B
   0.6799999999999988  0.1599999999999957  0.0000000000000000 B
   0.6599999999999986  0.0866666666666616  0.0000000000000000 B
   0.6399999999999988  0.0133333333333283  0.0000000000000000 B
   0.6199999999999988  0.9399999999999951  0.0000000000000000 B
   0.5999999999999988  0.8666666666666618  0.0000000000000000 B
   0.5799999999999985  0.7933333333333277  0.0000000000000000 B
   0.5599999999999985  0.7199999999999944  0.0000000000000000 B
   0.8599999999999990  0.8199999999999958  0.0000000000000000 B
   0.2599999999999993  0.2866666666666640  0.0000000000000000 B
   0.8799999999999990  0.8933333333333291  0.0000000000000000 B
   0.9199999999999988  0.0399999999999956  0.0000000000000000 B
   0.2199999999999993  0.1399999999999970  0.0000000000000000 B
   0.1999999999999993  0.0666666666666638  0.0000000000000000 B
   0.1799999999999992  0.9933333333333301  0.0000000000000000 B
   0.1599999999999991  0.9199999999999968  0.0000000000000000 B
   0.1399999999999992  0.8466666666666636  0.0000000000000000 B
   0.1199999999999992  0.7733333333333303  0.0000000000000000 B
   0.0999999999999991  0.6999999999999962  0.0000000000000000 B
   0.0799999999999991  0.6266666666666629  0.0000000000000000 B
   0.0599999999999991  0.5533333333333297  0.0000000000000000 B
   0.0399999999999991  0.4799999999999964  0.0000000000000000 B
   0.0199999999999991  0.4066666666666632  0.0000000000000000 B
   0.9999999999999989  0.3333333333333295  0.0000000000000000 B
   0.9799999999999991  0.2599999999999962  0.0000000000000000 B
   0.9599999999999991  0.1866666666666630  0.0000000000000000 B
   0.9399999999999991  0.1133333333333297  0.0000000000000000 B
   0.8999999999999990  0.9666666666666623  0.0000000000000000 B
   0.0199999999999974  0.0733333333333217  0.0000000000000000 B
