B140
 1.000000
    -8.5000000000000142  -14.7224318639200078   -0.0000000000000000
   -15.3000000000000043   14.7224318639199936   -0.0000000000000000
    -0.0000000000000000   -0.0000000000000000  -10.8800000000000008
B
140
Direct
   0.0000000000000000  0.0000000000000000  0.0000000000000000 B
   0.4142857142857146  0.7142857142857135  0.0000000000000000 B
   0.3857142857142859  0.7857142857142851  0.0000000000000000 B
   0.3571428571428574  0.8571428571428568  0.0000000000000000 B
   0.3285714285714287  0.9285714285714279  0.0000000000000000 B
   0.3000000000000003  0.9999999999999996  0.0000000000000000 B
   0.2714285714285718  0.0714285714285707  0.0000000000000000 B
   0.2428571428571431  0.1428571428571423  0.0000000000000000 B
   0.2142857142857146  0.2142857142857135  0.0000000000000000 B
   0.1857142857142859  0.2857142857142851  0.0000000000000000 B
   0.1571428571428575  0.3571428571428568  0.0000000000000000 B
   0.1285714285714288  0.4285714285714279  0.0000000000000000 B
   0.1000000000000003  0.4999999999999996  0.0000000000000000 B
   0.0714285714285716  0.5714285714285712  0.0000000000000000 B
   0.0428571428571431  0.6428571428571423  0.0000000000000000 B
   0.0142857142857145  0.7142857142857140  0.0000000000000000 B
   0.9857142857142859  0.7857142857142851  0.0000000000000000 B
   0.9571428571428573  0.8571428571428568  0.0000000000000000 B
   0.5571428571428573  0.8571428571428570  0.0000000000000000 B
   0.5857142857142859  0.7857142857142854  0.0000000000000000 B
   0.6142857142857144  0.7142857142857140  0.0000000000000000 B
   0.6428571428571430  0.6428571428571426  0.0000000000000000 B
   0.6714285714285716  0.5714285714285712  0.0000000000000000 B
   0.7000000000000002  0.4999999999999996  0.0000000000000000 B
   0.4428571428571431  0.6428571428571423  0.0000000000000000 B
   0.7285714285714288  0.4285714285714282  0.0000000000000000 B
   0.7857142857142859  0.2857142857142854  0.0000000000000000 B
   0.8142857142857145  0.2142857142857140  0.0000000000000000 B
   0.8428571428571431  0.1428571428571426  0.0000000000000000 B
   0.8714285714285717  0.0714285714285710  0.0000000000000000 B
   0.9000000000000002  0.9999999999999996  0.0000000000000000 B
   0.9285714285714287  0.9285714285714284  0.0000000000000000 B
   0.7571428571428573  0.3571428571428568  0.0000000000000000 B
   0.5285714285714287  0.9285714285714284  0.0000000000000000 B
   0.4714285714285718  0.5714285714285707  0.0000000000000000 B
   0.5285714285714289  0.4285714285714279  0.0000000000000000 B
   0.4142857142857146  0.2142857142857135  0.0000000000000000 B
   0.3857142857142861  0.2857142857142847  0.0000000000000000 B
   0.3571428571428577  0.3571428571428559  0.0000000000000000 B
   0.3285714285714292  0.4285714285714279  0.0000000000000000 B
   0.3000000000000007  0.4999999999999991  0.0000000000000000 B
   0.2714285714285718  0.5714285714285703  0.0000000000000000 B
   0.2428571428571433  0.6428571428571415  0.0000000000000000 B
   0.2142857142857149  0.7142857142857135  0.0000000000000000 B
   0.1857142857142864  0.7857142857142847  0.0000000000000000 B
   0.1571428571428575  0.8571428571428568  0.0000000000000000 B
   0.1285714285714290  0.9285714285714279  0.0000000000000000 B
   0.1000000000000005  0.9999999999999991  0.0000000000000000 B
   0.0714285714285721  0.0714285714285703  0.0000000000000000 B
   0.0428571428571436  0.1428571428571415  0.0000000000000000 B
   0.0142857142857147  0.2142857142857135  0.0000000000000000 B
   0.9857142857142862  0.2857142857142847  0.0000000000000000 B
   0.9571428571428575  0.3571428571428568  0.0000000000000000 B
   0.5571428571428576  0.3571428571428563  0.0000000000000000 B
   0.5857142857142861  0.2857142857142851  0.0000000000000000 B
   0.6142857142857148  0.2142857142857135  0.0000000000000000 B
   0.6428571428571432  0.1428571428571423  0.0000000000000000 B
   0.6714285714285719  0.0714285714285707  0.0000000000000000 B
   0.7000000000000004  0.9999999999999991  0.0000000000000000 B
   0.5000000000000004  0.4999999999999991  0.0000000000000000 B
   0.7285714285714291  0.9285714285714279  0.0000000000000000 B
   0.7857142857142860  0.7857142857142856  0.0000000000000000 B
   0.8142857142857147  0.7142857142857135  0.0000000000000000 B
   0.8428571428571432  0.6428571428571423  0.0000000000000000 B
   0.8714285714285719  0.5714285714285703  0.0000000000000000 B
   0.9000000000000004  0.4999999999999991  0.0000000000000000 B
   0.9285714285714290  0.4285714285714279  0.0000000000000000 B
   0.7571428571428576  0.8571428571428568  0.0000000000000000 B
   0.5000000000000001  0.9999999999999998  0.0000000000000000 B
   0.9714285714285718  0.0714285714285712  0.0000000000000000 B
   0.9428571428571433  0.1428571428571423  0.0000000000000000 B
   0.8857142857142859  0.7857142857142856  0.0000000000000000 B
   0.8571428571428573  0.8571428571428568  0.0000000000000000 B
   0.8285714285714287  0.9285714285714284  0.0000000000000000 B
   0.8000000000000002  0.0000000000000000  0.0000000000000000 B
   0.7714285714285716  0.0714285714285712  0.0000000000000000 B
   0.7428571428571430  0.1428571428571426  0.0000000000000000 B
   0.7142857142857144  0.2142857142857140  0.0000000000000000 B
   0.6857142857142858  0.2857142857142854  0.0000000000000000 B
   0.6571428571428573  0.3571428571428568  0.0000000000000000 B
   0.6285714285714287  0.4285714285714284  0.0000000000000000 B
   0.6000000000000001  0.4999999999999998  0.0000000000000000 B
   0.5714285714285715  0.5714285714285712  0.0000000000000000 B
   0.5428571428571429  0.6428571428571428  0.0000000000000000 B
   0.5142857142857143  0.7142857142857142  0.0000000000000000 B
   0.4857142857142858  0.7857142857142856  0.0000000000000000 B
   0.4571428571428572  0.8571428571428570  0.0000000000000000 B
   0.4285714285714287  0.9285714285714284  0.0000000000000000 B
   0.0285714285714286  0.9285714285714286  0.0000000000000000 B
   0.0571428571428572  0.8571428571428571  0.0000000000000000 B
   0.0857142857142857  0.7857142857142857  0.0000000000000000 B
   0.1142857142857143  0.7142857142857142  0.0000000000000000 B
   0.1428571428571429  0.6428571428571428  0.0000000000000000 B
   0.1714285714285715  0.5714285714285714  0.0000000000000000 B
   0.9142857142857145  0.7142857142857140  0.0000000000000000 B
   0.2000000000000000  0.5000000000000000  0.0000000000000000 B
   0.2571428571428572  0.3571428571428571  0.0000000000000000 B
   0.2857142857142858  0.2857142857142856  0.0000000000000000 B
   0.3142857142857143  0.2142857142857142  0.0000000000000000 B
   0.3428571428571429  0.1428571428571427  0.0000000000000000 B
   0.3714285714285715  0.0714285714285713  0.0000000000000000 B
   0.4000000000000001  0.0000000000000000  0.0000000000000000 B
   0.2285714285714286  0.4285714285714285  0.0000000000000000 B
   0.9428571428571431  0.6428571428571423  0.0000000000000000 B
   0.9714285714285716  0.5714285714285712  0.0000000000000000 B
   0.0000000000000002  0.4999999999999996  0.0000000000000000 B
   0.5428571428571431  0.1428571428571423  0.0000000000000000 B
   0.5714285714285718  0.0714285714285707  0.0000000000000000 B
   0.6000000000000003  0.0000000000000000  0.0000000000000000 B
   0.6285714285714290  0.9285714285714279  0.0000000000000000 B
   0.6571428571428575  0.8571428571428568  0.0000000000000000 B
   0.6857142857142862  0.7857142857142847  0.0000000000000000 B
   0.5142857142857147  0.2142857142857135  0.0000000000000000 B
   0.7142857142857146  0.7142857142857135  0.0000000000000000 B
   0.7714285714285718  0.5714285714285712  0.0000000000000000 B
   0.8000000000000005  0.4999999999999991  0.0000000000000000 B
   0.8285714285714290  0.4285714285714279  0.0000000000000000 B
   0.8571428571428574  0.3571428571428568  0.0000000000000000 B
   0.8857142857142861  0.2857142857142847  0.0000000000000000 B
   0.9142857142857146  0.2142857142857135  0.0000000000000000 B
   0.7428571428571433  0.6428571428571423  0.0000000000000000 B
   0.4428571428571435  0.1428571428571415  0.0000000000000000 B
   0.4857142857142860  0.2857142857142851  0.0000000000000000 B
   0.4285714285714288  0.4285714285714279  0.0000000000000000 B
   0.0285714285714287  0.4285714285714284  0.0000000000000000 B
   0.0571428571428574  0.3571428571428568  0.0000000000000000 B
   0.0857142857142859  0.2857142857142856  0.0000000000000000 B
   0.1142857142857145  0.2142857142857135  0.0000000000000000 B
   0.1428571428571430  0.1428571428571423  0.0000000000000000 B
   0.1714285714285717  0.0714285714285707  0.0000000000000000 B
   0.4571428571428573  0.3571428571428568  0.0000000000000000 B
   0.2000000000000002  0.9999999999999996  0.0000000000000000 B
   0.2571428571428573  0.8571428571428568  0.0000000000000000 B
   0.2857142857142858  0.7857142857142856  0.0000000000000000 B
   0.3142857142857145  0.7142857142857135  0.0000000000000000 B
   0.3428571428571430  0.6428571428571423  0.0000000000000000 B
   0.3714285714285717  0.5714285714285707  0.0000000000000000 B
   0.4000000000000001  0.4999999999999996  0.0000000000000000 B
   0.2285714285714286  0.9285714285714284  0.0000000000000000 B
   0.4714285714285720  0.0714285714285703  0.0000000000000000 B
