B102
 1.000000
    -5.0999999999999943  -14.7224318639200078   -0.0000000000000000
   -15.2999999999999972    5.8889727455679974   -0.0000000000000000
    -0.0000000000000000   -0.0000000000000000  -10.8800000000000008
B
102
Direct
   0.0000000000000000  0.0000000000000000  0.0000000000000000 B
   0.0098039215686274  0.2745098039215685  0.0000000000000000 B
   0.9411764705882346  0.3529411764705888  0.0000000000000000 B
   0.8725490196078427  0.4313725490196081  0.0000000000000000 B
   0.8039215686274508  0.5098039215686274  0.0000000000000000 B
   0.7352941176470589  0.5882352941176467  0.0000000000000000 B
   0.6666666666666661  0.6666666666666670  0.0000000000000000 B
   0.5980392156862742  0.7450980392156863  0.0000000000000000 B
   0.5294117647058822  0.8235294117647056  0.0000000000000000 B
   0.4607843137254903  0.9019607843137258  0.0000000000000000 B
   0.3921568627450984  0.9803921568627452  0.0000000000000000 B
   0.3235294117647065  0.0588235294117645  0.0000000000000000 B
   0.2549019607843137  0.1372549019607847  0.0000000000000000 B
   0.1862745098039218  0.2156862745098040  0.0000000000000000 B
   0.1176470588235299  0.2941176470588234  0.0000000000000000 B
   0.0490196078431371  0.3725490196078436  0.0000000000000000 B
   0.9803921568627452  0.4509803921568629  0.0000000000000000 B
   0.9117647058823533  0.5294117647058822  0.0000000000000000 B
   0.8431372549019613  0.6078431372549016  0.0000000000000000 B
   0.7745098039215685  0.6862745098039218  0.0000000000000000 B
   0.7058823529411766  0.7647058823529411  0.0000000000000000 B
   0.6372549019607847  0.8431372549019605  0.0000000000000000 B
   0.0784313725490193  0.1960784313725492  0.0000000000000000 B
   0.1470588235294112  0.1176470588235299  0.0000000000000000 B
   0.2156862745098040  0.0392156862745097  0.0000000000000000 B
   0.2843137254901960  0.9607843137254903  0.0000000000000000 B
   0.7941176470588234  0.2352941176470589  0.0000000000000000 B
   0.7254901960784315  0.3137254901960782  0.0000000000000000 B
   0.6568627450980387  0.3921568627450984  0.0000000000000000 B
   0.5882352941176467  0.4705882352941178  0.0000000000000000 B
   0.5196078431372548  0.5490196078431371  0.0000000000000000 B
   0.4509803921568620  0.6274509803921573  0.0000000000000000 B
   0.3823529411764701  0.7058823529411766  0.0000000000000000 B
   0.3137254901960782  0.7843137254901960  0.0000000000000000 B
   0.2450980392156854  0.8627450980392162  0.0000000000000000 B
   0.1764705882352935  0.9411764705882355  0.0000000000000000 B
   0.5686274509803919  0.9215686274509807  0.0000000000000000 B
   0.1078431372549016  0.0196078431372548  0.0000000000000000 B
   0.9705882352941178  0.1764705882352944  0.0000000000000000 B
   0.9019607843137258  0.2549019607843137  0.0000000000000000 B
   0.8333333333333339  0.3333333333333330  0.0000000000000000 B
   0.7647058823529411  0.4117647058823533  0.0000000000000000 B
   0.6960784313725492  0.4901960784313726  0.0000000000000000 B
   0.6274509803921573  0.5686274509803919  0.0000000000000000 B
   0.5588235294117645  0.6470588235294121  0.0000000000000000 B
   0.4901960784313726  0.7254901960784315  0.0000000000000000 B
   0.4215686274509807  0.8039215686274508  0.0000000000000000 B
   0.3529411764705879  0.8823529411764710  0.0000000000000000 B
   0.0392156862745097  0.0980392156862742  0.0000000000000000 B
   0.5000000000000000  0.0000000000000000  0.0000000000000000 B
   0.4313725490196076  0.0784313725490198  0.0000000000000000 B
   0.3627450980392157  0.1568627450980391  0.0000000000000000 B
   0.5098039215686274  0.2745098039215685  0.0000000000000000 B
   0.4411764705882353  0.3529411764705883  0.0000000000000000 B
   0.3725490196078431  0.4313725490196079  0.0000000000000000 B
   0.3039215686274510  0.5098039215686274  0.0000000000000000 B
   0.2352941176470587  0.5882352941176472  0.0000000000000000 B
   0.1666666666666665  0.6666666666666667  0.0000000000000000 B
   0.0980392156862746  0.7450980392156863  0.0000000000000000 B
   0.0294117647058825  0.8235294117647058  0.0000000000000000 B
   0.9607843137254903  0.9019607843137254  0.0000000000000000 B
   0.8921568627450980  0.9803921568627452  0.0000000000000000 B
   0.5784313725490196  0.1960784313725490  0.0000000000000000 B
   0.8235294117647058  0.0588235294117647  0.0000000000000000 B
   0.6862745098039216  0.2156862745098039  0.0000000000000000 B
   0.6176470588235293  0.2941176470588236  0.0000000000000000 B
   0.5490196078431373  0.3725490196078431  0.0000000000000000 B
   0.4803921568627452  0.4509803921568627  0.0000000000000000 B
   0.4117647058823529  0.5294117647058824  0.0000000000000000 B
   0.3431372549019608  0.6078431372549020  0.0000000000000000 B
   0.2745098039215687  0.6862745098039216  0.0000000000000000 B
   0.2058823529411765  0.7647058823529411  0.0000000000000000 B
   0.1372549019607843  0.8431372549019608  0.0000000000000000 B
   0.0686274509803922  0.9215686274509804  0.0000000000000000 B
   0.7549019607843137  0.1372549019607843  0.0000000000000000 B
   0.8627450980392153  0.1568627450980395  0.0000000000000000 B
   0.6470588235294117  0.1176470588235294  0.0000000000000000 B
   0.7843137254901960  0.9607843137254903  0.0000000000000000 B
   0.2941176470588234  0.2352941176470589  0.0000000000000000 B
   0.2254901960784310  0.3137254901960786  0.0000000000000000 B
   0.1568627450980391  0.3921568627450980  0.0000000000000000 B
   0.0882352941176467  0.4705882352941178  0.0000000000000000 B
   0.0196078431372548  0.5490196078431371  0.0000000000000000 B
   0.9509803921568629  0.6274509803921569  0.0000000000000000 B
   0.8823529411764706  0.7058823529411766  0.0000000000000000 B
   0.8137254901960786  0.7843137254901960  0.0000000000000000 B
   0.7450980392156863  0.8627450980392157  0.0000000000000000 B
   0.6764705882352939  0.9411764705882355  0.0000000000000000 B
   0.7156862745098038  0.0392156862745099  0.0000000000000000 B
   0.6078431372549020  0.0196078431372548  0.0000000000000000 B
   0.4705882352941173  0.1764705882352944  0.0000000000000000 B
   0.4019607843137254  0.2549019607843137  0.0000000000000000 B
   0.3333333333333330  0.3333333333333335  0.0000000000000000 B
   0.2647058823529411  0.4117647058823528  0.0000000000000000 B
   0.1960784313725492  0.4901960784313726  0.0000000000000000 B
   0.1274509803921569  0.5686274509803924  0.0000000000000000 B
   0.0588235294117649  0.6470588235294117  0.0000000000000000 B
   0.9901960784313726  0.7254901960784315  0.0000000000000000 B
   0.9215686274509807  0.8039215686274508  0.0000000000000000 B
   0.8529411764705883  0.8823529411764706  0.0000000000000000 B
   0.5392156862745097  0.0980392156862746  0.0000000000000000 B
   0.9313725490196081  0.0784313725490193  0.0000000000000000 B
