B145
 1.000000
    12.7500000000000000   10.3057023047440453    0.0000000000000000
   -17.0000000000000000   14.7224318639199794    0.0000000000000000
     0.0000000000000000    0.0000000000000000   10.8800000000000008
B
145
Direct
   0.0000000000000000  0.0000000000000000  0.0000000000000000 B
   0.1724137931034515  0.9793103448275922  0.0000000000000000 B
   0.2068965517241410  0.0551724137931098  0.0000000000000000 B
   0.2413793103448310  0.1310344827586274  0.0000000000000000 B
   0.2758620689655205  0.2068965517241450  0.0000000000000000 B
   0.3103448275862104  0.2827586206896617  0.0000000000000000 B
   0.3448275862069003  0.3586206896551793  0.0000000000000000 B
   0.1379310344827620  0.9034482758620763  0.0000000000000000 B
   0.3793103448275899  0.4344827586206970  0.0000000000000000 B
   0.4482758620689693  0.5862068965517322  0.0000000000000000 B
   0.4827586206896588  0.6620689655172480  0.0000000000000000 B
   0.5172413793103483  0.7379310344827656  0.0000000000000000 B
   0.5517241379310382  0.8137931034482833  0.0000000000000000 B
   0.5862068965517278  0.8896551724138009  0.0000000000000000 B
   0.6206896551724177  0.9655172413793185  0.0000000000000000 B
   0.4137931034482798  0.5103448275862146  0.0000000000000000 B
   0.6551724137931076  0.0413793103448352  0.0000000000000000 B
   0.1034482758620725  0.8275862068965587  0.0000000000000000 B
   0.0344827586206931  0.6758620689655235  0.0000000000000000 B
   0.5517241379310374  0.6137931034482813  0.0000000000000000 B
   0.5862068965517269  0.6896551724137989  0.0000000000000000 B
   0.6206896551724164  0.7655172413793156  0.0000000000000000 B
   0.6551724137931059  0.8413793103448324  0.0000000000000000 B
   0.6896551724137958  0.9172413793103500  0.0000000000000000 B
   0.7241379310344858  0.9931034482758676  0.0000000000000000 B
   0.0689655172413826  0.7517241379310411  0.0000000000000000 B
   0.7586206896551753  0.0689655172413852  0.0000000000000000 B
   0.8275862068965547  0.2206896551724205  0.0000000000000000 B
   0.8620689655172447  0.2965517241379372  0.0000000000000000 B
   0.8965517241379342  0.3724137931034548  0.0000000000000000 B
   0.9310344827586237  0.4482758620689715  0.0000000000000000 B
   0.9655172413793132  0.5241379310344882  0.0000000000000000 B
   0.0000000000000031  0.6000000000000059  0.0000000000000000 B
   0.7931034482758652  0.1448275862069028  0.0000000000000000 B
   0.6896551724137971  0.1172413793103537  0.0000000000000000 B
   0.7241379310344862  0.1931034482758687  0.0000000000000000 B
   0.7586206896551762  0.2689655172413872  0.0000000000000000 B
   0.4482758620689706  0.7862068965517341  0.0000000000000000 B
   0.4827586206896601  0.8620689655172509  0.0000000000000000 B
   0.5172413793103496  0.9379310344827694  0.0000000000000000 B
   0.5517241379310391  0.0137931034482861  0.0000000000000000 B
   0.5862068965517286  0.0896551724138028  0.0000000000000000 B
   0.6206896551724181  0.1655172413793196  0.0000000000000000 B
   0.4137931034482802  0.7103448275862156  0.0000000000000000 B
   0.6551724137931085  0.2413793103448381  0.0000000000000000 B
   0.7241379310344875  0.3931034482758715  0.0000000000000000 B
   0.7586206896551779  0.4689655172413900  0.0000000000000000 B
   0.7931034482758674  0.5448275862069067  0.0000000000000000 B
   0.8275862068965569  0.6206896551724235  0.0000000000000000 B
   0.8620689655172464  0.6965517241379402  0.0000000000000000 B
   0.8965517241379359  0.7724137931034587  0.0000000000000000 B
   0.6896551724137980  0.3172413793103548  0.0000000000000000 B
   0.3793103448275907  0.6344827586206989  0.0000000000000000 B
   0.3448275862069012  0.5586206896551804  0.0000000000000000 B
   0.3103448275862108  0.4827586206896637  0.0000000000000000 B
   0.7931034482758661  0.3448275862069039  0.0000000000000000 B
   0.8275862068965556  0.4206896551724224  0.0000000000000000 B
   0.8620689655172455  0.4965517241379391  0.0000000000000000 B
   0.8965517241379350  0.5724137931034559  0.0000000000000000 B
   0.9310344827586250  0.6482758620689744  0.0000000000000000 B
   0.9655172413793149  0.7241379310344911  0.0000000000000000 B
   0.0000000000000044  0.8000000000000096  0.0000000000000000 B
   0.0344827586206939  0.8758620689655245  0.0000000000000000 B
   0.0689655172413834  0.9517241379310430  0.0000000000000000 B
   0.1034482758620729  0.0275862068965598  0.0000000000000000 B
   0.1379310344827633  0.1034482758620783  0.0000000000000000 B
   0.1724137931034528  0.1793103448275950  0.0000000000000000 B
   0.2068965517241423  0.2551724137931117  0.0000000000000000 B
   0.2413793103448318  0.3310344827586302  0.0000000000000000 B
   0.2758620689655213  0.4068965517241470  0.0000000000000000 B
   0.5172413793103474  0.5379310344827637  0.0000000000000000 B
   0.9310344827586254  0.8482758620689754  0.0000000000000000 B
   0.4827586206896579  0.4620689655172470  0.0000000000000000 B
   0.4137931034482785  0.3103448275862117  0.0000000000000000 B
   0.6551724137931041  0.4413793103448289  0.0000000000000000 B
   0.6896551724137938  0.5172413793103463  0.0000000000000000 B
   0.7241379310344835  0.5931034482758637  0.0000000000000000 B
   0.7586206896551733  0.6689655172413809  0.0000000000000000 B
   0.7931034482758629  0.7448275862068980  0.0000000000000000 B
   0.8275862068965526  0.8206896551724154  0.0000000000000000 B
   0.6206896551724145  0.3655172413793117  0.0000000000000000 B
   0.8620689655172423  0.8965517241379330  0.0000000000000000 B
   0.9310344827586216  0.0482758620689672  0.0000000000000000 B
   0.9655172413793114  0.1241379310344848  0.0000000000000000 B
   0.0000000000000011  0.2000000000000024  0.0000000000000000 B
   0.0344827586206908  0.2758620689655196  0.0000000000000000 B
   0.0689655172413803  0.3517241379310367  0.0000000000000000 B
   0.1034482758620701  0.4275862068965539  0.0000000000000000 B
   0.8965517241379319  0.9724137931034502  0.0000000000000000 B
   0.1379310344827598  0.5034482758620715  0.0000000000000000 B
   0.5862068965517248  0.2896551724137943  0.0000000000000000 B
   0.5172413793103454  0.1379310344827598  0.0000000000000000 B
   0.0344827586206897  0.0758620689655173  0.0000000000000000 B
   0.0689655172413794  0.1517241379310346  0.0000000000000000 B
   0.1034482758620691  0.2275862068965519  0.0000000000000000 B
   0.1379310344827588  0.3034482758620692  0.0000000000000000 B
   0.1724137931034485  0.3793103448275866  0.0000000000000000 B
   0.2068965517241382  0.4551724137931039  0.0000000000000000 B
   0.5517241379310350  0.2137931034482770  0.0000000000000000 B
   0.2413793103448278  0.5310344827586212  0.0000000000000000 B
   0.3103448275862072  0.6827586206896559  0.0000000000000000 B
   0.3448275862068969  0.7586206896551732  0.0000000000000000 B
   0.3793103448275866  0.8344827586206904  0.0000000000000000 B
   0.4137931034482763  0.9103448275862077  0.0000000000000000 B
   0.4482758620689660  0.9862068965517251  0.0000000000000000 B
   0.4827586206896557  0.0620689655172424  0.0000000000000000 B
   0.2758620689655175  0.6068965517241385  0.0000000000000000 B
   0.1724137931034495  0.5793103448275887  0.0000000000000000 B
   0.2068965517241392  0.6551724137931059  0.0000000000000000 B
   0.2413793103448290  0.7310344827586235  0.0000000000000000 B
   0.9310344827586228  0.2482758620689696  0.0000000000000000 B
   0.9655172413793125  0.3241379310344872  0.0000000000000000 B
   0.0000000000000022  0.4000000000000048  0.0000000000000000 B
   0.0344827586206917  0.4758620689655215  0.0000000000000000 B
   0.0689655172413817  0.5517241379310391  0.0000000000000000 B
   0.1034482758620712  0.6275862068965559  0.0000000000000000 B
   0.8965517241379330  0.1724137931034520  0.0000000000000000 B
   0.1379310344827607  0.7034482758620735  0.0000000000000000 B
   0.2068965517241401  0.8551724137931078  0.0000000000000000 B
   0.2413793103448301  0.9310344827586254  0.0000000000000000 B
   0.2758620689655196  0.0068965517241431  0.0000000000000000 B
   0.3103448275862091  0.0827586206896598  0.0000000000000000 B
   0.3448275862068990  0.1586206896551774  0.0000000000000000 B
   0.3793103448275890  0.2344827586206950  0.0000000000000000 B
   0.1724137931034506  0.7793103448275902  0.0000000000000000 B
   0.8620689655172431  0.0965517241379343  0.0000000000000000 B
   0.8275862068965538  0.0206896551724176  0.0000000000000000 B
   0.7931034482758639  0.9448275862069004  0.0000000000000000 B
   0.2758620689655187  0.8068965517241407  0.0000000000000000 B
   0.3103448275862082  0.8827586206896578  0.0000000000000000 B
   0.3448275862068979  0.9586206896551750  0.0000000000000000 B
   0.3793103448275876  0.0344827586206926  0.0000000000000000 B
   0.4137931034482774  0.1103448275862102  0.0000000000000000 B
   0.4482758620689671  0.1862068965517274  0.0000000000000000 B
   0.4827586206896566  0.2620689655172441  0.0000000000000000 B
   0.5172413793103465  0.3379310344827617  0.0000000000000000 B
   0.5517241379310363  0.4137931034482794  0.0000000000000000 B
   0.5862068965517258  0.4896551724137961  0.0000000000000000 B
   0.6206896551724155  0.5655172413793137  0.0000000000000000 B
   0.6551724137931052  0.6413793103448309  0.0000000000000000 B
   0.6896551724137949  0.7172413793103485  0.0000000000000000 B
   0.7241379310344846  0.7931034482758661  0.0000000000000000 B
   0.7586206896551742  0.8689655172413828  0.0000000000000000 B
   0.4482758620689680  0.3862068965517294  0.0000000000000000 B
   0.9655172413793158  0.9241379310344939  0.0000000000000000 B
