B142
 1.000000
   -16.1500000000000057   -4.4167295591760194   -0.0000000000000000
    -5.0999999999999943   20.6114046094880052   -0.0000000000000000
    -0.0000000000000000   -0.0000000000000000  -10.8800000000000008
B
142
Direct
   0.0000000000000000  0.0000000000000000  0.0000000000000000 B
   0.0985915492957719  0.0211267605633720  0.0000000000000000 B
   0.1267605633802789  0.0985915492957670  0.0000000000000000 B
   0.1549295774647859  0.1760563380281610  0.0000000000000000 B
   0.1830985915492929  0.2535211267605550  0.0000000000000000 B
   0.2112676056337999  0.3309859154929500  0.0000000000000000 B
   0.2394366197183073  0.4084507042253449  0.0000000000000000 B
   0.2676056338028148  0.4859154929577398  0.0000000000000000 B
   0.2957746478873218  0.5633802816901339  0.0000000000000000 B
   0.3239436619718288  0.6408450704225279  0.0000000000000000 B
   0.3521126760563358  0.7183098591549228  0.0000000000000000 B
   0.3802816901408428  0.7957746478873169  0.0000000000000000 B
   0.4084507042253498  0.8732394366197109  0.0000000000000000 B
   0.4366197183098568  0.9507042253521059  0.0000000000000000 B
   0.4647887323943638  0.0281690140844999  0.0000000000000000 B
   0.4929577464788708  0.1056338028168939  0.0000000000000000 B
   0.5211267605633778  0.1830985915492889  0.0000000000000000 B
   0.5492957746478853  0.2605633802816838  0.0000000000000000 B
   0.9436619718309842  0.3450704225352057  0.0000000000000000 B
   0.9154929577464772  0.2676056338028117  0.0000000000000000 B
   0.8873239436619702  0.1901408450704176  0.0000000000000000 B
   0.8591549295774628  0.1126760563380218  0.0000000000000000 B
   0.8309859154929558  0.0352112676056278  0.0000000000000000 B
   0.8028169014084487  0.9577464788732328  0.0000000000000000 B
   0.0704225352112648  0.9436619718309771  0.0000000000000000 B
   0.7746478873239417  0.8802816901408388  0.0000000000000000 B
   0.7183098591549273  0.7253521126760498  0.0000000000000000 B
   0.6901408450704203  0.6478873239436558  0.0000000000000000 B
   0.6619718309859133  0.5704225352112617  0.0000000000000000 B
   0.6338028169014063  0.4929577464788668  0.0000000000000000 B
   0.6056338028168993  0.4154929577464728  0.0000000000000000 B
   0.5774647887323923  0.3380281690140787  0.0000000000000000 B
   0.7464788732394343  0.8028169014084447  0.0000000000000000 B
   0.0422535211267578  0.8661971830985831  0.0000000000000000 B
   0.0140845070422508  0.7887323943661890  0.0000000000000000 B
   0.9859154929577438  0.7112676056337950  0.0000000000000000 B
   0.4507042253521094  0.2394366197182993  0.0000000000000000 B
   0.4225352112676024  0.1619718309859053  0.0000000000000000 B
   0.3943661971830954  0.0845070422535112  0.0000000000000000 B
   0.3661971830985884  0.0070422535211172  0.0000000000000000 B
   0.3380281690140814  0.9295774647887232  0.0000000000000000 B
   0.3098591549295744  0.8521126760563291  0.0000000000000000 B
   0.4788732394366164  0.3169014084506951  0.0000000000000000 B
   0.2816901408450674  0.7746478873239333  0.0000000000000000 B
   0.2253521126760525  0.6197183098591434  0.0000000000000000 B
   0.1971830985915455  0.5422535211267494  0.0000000000000000 B
   0.1690140845070385  0.4647887323943554  0.0000000000000000 B
   0.1408450704225315  0.3873239436619613  0.0000000000000000 B
   0.1126760563380245  0.3098591549295673  0.0000000000000000 B
   0.0845070422535175  0.2323943661971732  0.0000000000000000 B
   0.2535211267605604  0.6971830985915393  0.0000000000000000 B
   0.9718309859154912  0.4225352112676006  0.0000000000000000 B
   0.5070422535211234  0.3943661971830892  0.0000000000000000 B
   0.5633802816901379  0.5492957746478790  0.0000000000000000 B
   0.9577464788732368  0.6338028169014009  0.0000000000000000 B
   0.9295774647887298  0.5563380281690069  0.0000000000000000 B
   0.9014084507042228  0.4788732394366111  0.0000000000000000 B
   0.8732394366197154  0.4014084507042170  0.0000000000000000 B
   0.8450704225352084  0.3239436619718212  0.0000000000000000 B
   0.8169014084507014  0.2464788732394272  0.0000000000000000 B
   0.5352112676056304  0.4718309859154832  0.0000000000000000 B
   0.7887323943661944  0.1690140845070331  0.0000000000000000 B
   0.7323943661971799  0.0140845070422451  0.0000000000000000 B
   0.7042253521126729  0.9366197183098510  0.0000000000000000 B
   0.6760563380281659  0.8591549295774552  0.0000000000000000 B
   0.6478873239436589  0.7816901408450612  0.0000000000000000 B
   0.6197183098591519  0.7042253521126671  0.0000000000000000 B
   0.5915492957746449  0.6267605633802731  0.0000000000000000 B
   0.7605633802816874  0.0915492957746391  0.0000000000000000 B
   0.9999999999999982  0.4999999999999947  0.0000000000000000 B
   0.0281690140845052  0.5774647887323887  0.0000000000000000 B
   0.0563380281690122  0.6549295774647836  0.0000000000000000 B
   0.4647887323943657  0.5281690140845055  0.0000000000000000 B
   0.4366197183098586  0.4507042253521112  0.0000000000000000 B
   0.4084507042253516  0.3732394366197167  0.0000000000000000 B
   0.3802816901408445  0.2957746478873222  0.0000000000000000 B
   0.3521126760563374  0.2183098591549277  0.0000000000000000 B
   0.3239436619718304  0.1408450704225335  0.0000000000000000 B
   0.4929577464788728  0.6056338028169002  0.0000000000000000 B
   0.2957746478873232  0.0633802816901388  0.0000000000000000 B
   0.2394366197183092  0.9084507042253502  0.0000000000000000 B
   0.2112676056338021  0.8309859154929553  0.0000000000000000 B
   0.1830985915492950  0.7535211267605613  0.0000000000000000 B
   0.1549295774647880  0.6760563380281668  0.0000000000000000 B
   0.1267605633802809  0.5985915492957723  0.0000000000000000 B
   0.0985915492957739  0.5211267605633778  0.0000000000000000 B
   0.2676056338028162  0.9859154929577443  0.0000000000000000 B
   0.0704225352112668  0.4436619718309833  0.0000000000000000 B
   0.5211267605633798  0.6830985915492944  0.0000000000000000 B
   0.5774647887323940  0.8380281690140834  0.0000000000000000 B
   0.9718309859154929  0.9225352112676055  0.0000000000000000 B
   0.9436619718309859  0.8450704225352111  0.0000000000000000 B
   0.9154929577464788  0.7676056338028167  0.0000000000000000 B
   0.8873239436619718  0.6901408450704223  0.0000000000000000 B
   0.8591549295774646  0.6126760563380278  0.0000000000000000 B
   0.8309859154929576  0.5352112676056333  0.0000000000000000 B
   0.5492957746478869  0.7605633802816889  0.0000000000000000 B
   0.8028169014084505  0.4577464788732388  0.0000000000000000 B
   0.7464788732394364  0.3028169014084501  0.0000000000000000 B
   0.7183098591549293  0.2253521126760556  0.0000000000000000 B
   0.6901408450704223  0.1478873239436611  0.0000000000000000 B
   0.6619718309859153  0.0704225352112667  0.0000000000000000 B
   0.6338028169014081  0.9929577464788721  0.0000000000000000 B
   0.6056338028169010  0.9154929577464777  0.0000000000000000 B
   0.7746478873239435  0.3802816901408445  0.0000000000000000 B
   0.0563380281690105  0.1549295774647774  0.0000000000000000 B
   0.0422535211267596  0.3661971830985888  0.0000000000000000 B
   0.9859154929577456  0.2112676056338003  0.0000000000000000 B
   0.4507042253521114  0.7394366197183055  0.0000000000000000 B
   0.4225352112676042  0.6619718309859106  0.0000000000000000 B
   0.3943661971830972  0.5845070422535166  0.0000000000000000 B
   0.3661971830985900  0.5070422535211225  0.0000000000000000 B
   0.3380281690140829  0.4295774647887276  0.0000000000000000 B
   0.3098591549295759  0.3521126760563336  0.0000000000000000 B
   0.4788732394366184  0.8169014084507005  0.0000000000000000 B
   0.2816901408450689  0.2746478873239395  0.0000000000000000 B
   0.2253521126760547  0.1197183098591497  0.0000000000000000 B
   0.1971830985915477  0.0422535211267556  0.0000000000000000 B
   0.1690140845070407  0.9647887323943616  0.0000000000000000 B
   0.1408450704225337  0.8873239436619667  0.0000000000000000 B
   0.1126760563380262  0.8098591549295717  0.0000000000000000 B
   0.0845070422535192  0.7323943661971777  0.0000000000000000 B
   0.2535211267605617  0.1971830985915446  0.0000000000000000 B
   0.0140845070422526  0.2887323943661944  0.0000000000000000 B
   0.5070422535211254  0.8943661971830945  0.0000000000000000 B
   0.5633802816901394  0.0492957746478835  0.0000000000000000 B
   0.9577464788732386  0.1338028169014058  0.0000000000000000 B
   0.9295774647887314  0.0563380281690109  0.0000000000000000 B
   0.9014084507042244  0.9788732394366164  0.0000000000000000 B
   0.8732394366197171  0.9014084507042224  0.0000000000000000 B
   0.8450704225352101  0.8239436619718279  0.0000000000000000 B
   0.8169014084507031  0.7464788732394334  0.0000000000000000 B
   0.5352112676056324  0.9718309859154886  0.0000000000000000 B
   0.7887323943661961  0.6690140845070394  0.0000000000000000 B
   0.7323943661971819  0.5140845070422499  0.0000000000000000 B
   0.7042253521126749  0.4366197183098555  0.0000000000000000 B
   0.6760563380281679  0.3591549295774614  0.0000000000000000 B
   0.6478873239436609  0.2816901408450669  0.0000000000000000 B
   0.6197183098591537  0.2042253521126725  0.0000000000000000 B
   0.5915492957746464  0.1267605633802775  0.0000000000000000 B
   0.7605633802816889  0.5915492957746444  0.0000000000000000 B
   0.0281690140845035  0.0774647887323834  0.0000000000000000 B
