B142
 1.000000
    -5.1000000000000085   -2.9444863727839845   -0.0000000000000000
   -28.9000000000000021   53.0007547101119982   -0.0000000000000000
    -0.0000000000000000   -0.0000000000000000  -10.8800000000000008
B
142
Direct
   0.0000000000000000  0.0000000000000000  0.0000000000000000 B
   0.2746478873239436  0.0985915492957745  0.0000000000000000 B
   0.2816901408450704  0.1267605633802815  0.0000000000000000 B
   0.2887323943661971  0.1549295774647885  0.0000000000000000 B
   0.2957746478873239  0.1830985915492955  0.0000000000000000 B
   0.3028169014084506  0.2112676056338025  0.0000000000000000 B
   0.3098591549295775  0.2394366197183100  0.0000000000000000 B
   0.3169014084507042  0.2676056338028170  0.0000000000000000 B
   0.3239436619718310  0.2957746478873240  0.0000000000000000 B
   0.3309859154929577  0.3239436619718310  0.0000000000000000 B
   0.3380281690140845  0.3521126760563380  0.0000000000000000 B
   0.3450704225352113  0.3802816901408450  0.0000000000000000 B
   0.3521126760563380  0.4084507042253520  0.0000000000000000 B
   0.3591549295774648  0.4366197183098590  0.0000000000000000 B
   0.3661971830985915  0.4647887323943660  0.0000000000000000 B
   0.3732394366197183  0.4929577464788730  0.0000000000000000 B
   0.3802816901408450  0.5211267605633800  0.0000000000000000 B
   0.3873239436619719  0.5492957746478875  0.0000000000000000 B
   0.4859154929577465  0.9436619718309860  0.0000000000000000 B
   0.4788732394366197  0.9154929577464790  0.0000000000000000 B
   0.4718309859154930  0.8873239436619720  0.0000000000000000 B
   0.4647887323943661  0.8591549295774645  0.0000000000000000 B
   0.4577464788732394  0.8309859154929575  0.0000000000000000 B
   0.4507042253521126  0.8028169014084505  0.0000000000000000 B
   0.2676056338028169  0.0704225352112675  0.0000000000000000 B
   0.4436619718309859  0.7746478873239435  0.0000000000000000 B
   0.4295774647887324  0.7183098591549295  0.0000000000000000 B
   0.4225352112676056  0.6901408450704225  0.0000000000000000 B
   0.4154929577464789  0.6619718309859155  0.0000000000000000 B
   0.4084507042253521  0.6338028169014085  0.0000000000000000 B
   0.4014084507042254  0.6056338028169015  0.0000000000000000 B
   0.3943661971830986  0.5774647887323945  0.0000000000000000 B
   0.4366197183098591  0.7464788732394365  0.0000000000000000 B
   0.2605633802816901  0.0422535211267605  0.0000000000000000 B
   0.2535211267605634  0.0140845070422535  0.0000000000000000 B
   0.2464788732394366  0.9859154929577465  0.0000000000000000 B
   0.1126760563380281  0.4507042253521125  0.0000000000000000 B
   0.1056338028169014  0.4225352112676055  0.0000000000000000 B
   0.0985915492957746  0.3943661971830985  0.0000000000000000 B
   0.0915492957746479  0.3661971830985915  0.0000000000000000 B
   0.0845070422535211  0.3380281690140845  0.0000000000000000 B
   0.0774647887323944  0.3098591549295775  0.0000000000000000 B
   0.1197183098591549  0.4788732394366195  0.0000000000000000 B
   0.0704225352112676  0.2816901408450705  0.0000000000000000 B
   0.0563380281690140  0.2253521126760560  0.0000000000000000 B
   0.0492957746478873  0.1971830985915490  0.0000000000000000 B
   0.0422535211267605  0.1690140845070420  0.0000000000000000 B
   0.0352112676056338  0.1408450704225350  0.0000000000000000 B
   0.0281690140845070  0.1126760563380280  0.0000000000000000 B
   0.0211267605633803  0.0845070422535210  0.0000000000000000 B
   0.0633802816901409  0.2535211267605635  0.0000000000000000 B
   0.4929577464788732  0.9718309859154930  0.0000000000000000 B
   0.1267605633802816  0.5070422535211265  0.0000000000000000 B
   0.1408450704225352  0.5633802816901410  0.0000000000000000 B
   0.2394366197183099  0.9577464788732395  0.0000000000000000 B
   0.2323943661971831  0.9295774647887325  0.0000000000000000 B
   0.2253521126760564  0.9014084507042255  0.0000000000000000 B
   0.2183098591549295  0.8732394366197180  0.0000000000000000 B
   0.2112676056338028  0.8450704225352110  0.0000000000000000 B
   0.2042253521126760  0.8169014084507040  0.0000000000000000 B
   0.1338028169014084  0.5352112676056335  0.0000000000000000 B
   0.1971830985915493  0.7887323943661970  0.0000000000000000 B
   0.1830985915492958  0.7323943661971830  0.0000000000000000 B
   0.1760563380281690  0.7042253521126760  0.0000000000000000 B
   0.1690140845070423  0.6760563380281690  0.0000000000000000 B
   0.1619718309859155  0.6478873239436620  0.0000000000000000 B
   0.1549295774647887  0.6197183098591550  0.0000000000000000 B
   0.1478873239436620  0.5915492957746480  0.0000000000000000 B
   0.1901408450704225  0.7605633802816900  0.0000000000000000 B
   0.5000000000000000  0.0000000000000000  0.0000000000000000 B
   0.5070422535211268  0.0281690140845070  0.0000000000000000 B
   0.5140845070422535  0.0563380281690140  0.0000000000000000 B
   0.8661971830985915  0.4647887323943661  0.0000000000000000 B
   0.8591549295774648  0.4366197183098591  0.0000000000000000 B
   0.8521126760563380  0.4084507042253521  0.0000000000000000 B
   0.8450704225352113  0.3802816901408450  0.0000000000000000 B
   0.8380281690140845  0.3521126760563380  0.0000000000000000 B
   0.8309859154929577  0.3239436619718310  0.0000000000000000 B
   0.8732394366197183  0.4929577464788732  0.0000000000000000 B
   0.8239436619718310  0.2957746478873239  0.0000000000000000 B
   0.8098591549295775  0.2394366197183099  0.0000000000000000 B
   0.8028169014084507  0.2112676056338028  0.0000000000000000 B
   0.7957746478873240  0.1830985915492958  0.0000000000000000 B
   0.7887323943661972  0.1549295774647887  0.0000000000000000 B
   0.7816901408450704  0.1267605633802816  0.0000000000000000 B
   0.7746478873239436  0.0985915492957746  0.0000000000000000 B
   0.8169014084507042  0.2676056338028169  0.0000000000000000 B
   0.7676056338028169  0.0704225352112676  0.0000000000000000 B
   0.8802816901408450  0.5211267605633803  0.0000000000000000 B
   0.8943661971830986  0.5774647887323944  0.0000000000000000 B
   0.9929577464788732  0.9718309859154930  0.0000000000000000 B
   0.9859154929577465  0.9436619718309859  0.0000000000000000 B
   0.9788732394366197  0.9154929577464789  0.0000000000000000 B
   0.9718309859154930  0.8873239436619719  0.0000000000000000 B
   0.9647887323943662  0.8591549295774648  0.0000000000000000 B
   0.9577464788732395  0.8309859154929577  0.0000000000000000 B
   0.8873239436619719  0.5492957746478873  0.0000000000000000 B
   0.9507042253521126  0.8028169014084507  0.0000000000000000 B
   0.9366197183098591  0.7464788732394366  0.0000000000000000 B
   0.9295774647887324  0.7183098591549295  0.0000000000000000 B
   0.9225352112676056  0.6901408450704225  0.0000000000000000 B
   0.9154929577464789  0.6619718309859155  0.0000000000000000 B
   0.9084507042253521  0.6338028169014085  0.0000000000000000 B
   0.9014084507042254  0.6056338028169014  0.0000000000000000 B
   0.9436619718309859  0.7746478873239436  0.0000000000000000 B
   0.0140845070422535  0.0563380281690140  0.0000000000000000 B
   0.7605633802816901  0.0422535211267605  0.0000000000000000 B
   0.7464788732394366  0.9859154929577465  0.0000000000000000 B
   0.6126760563380282  0.4507042253521127  0.0000000000000000 B
   0.6056338028169014  0.4225352112676055  0.0000000000000000 B
   0.5985915492957746  0.3943661971830985  0.0000000000000000 B
   0.5915492957746479  0.3661971830985915  0.0000000000000000 B
   0.5845070422535211  0.3380281690140845  0.0000000000000000 B
   0.5774647887323944  0.3098591549295775  0.0000000000000000 B
   0.6197183098591550  0.4788732394366197  0.0000000000000000 B
   0.5704225352112676  0.2816901408450705  0.0000000000000000 B
   0.5563380281690140  0.2253521126760563  0.0000000000000000 B
   0.5492957746478873  0.1971830985915493  0.0000000000000000 B
   0.5422535211267605  0.1690140845070423  0.0000000000000000 B
   0.5352112676056338  0.1408450704225352  0.0000000000000000 B
   0.5281690140845070  0.1126760563380280  0.0000000000000000 B
   0.5211267605633803  0.0845070422535210  0.0000000000000000 B
   0.5633802816901408  0.2535211267605633  0.0000000000000000 B
   0.7535211267605634  0.0140845070422535  0.0000000000000000 B
   0.6267605633802817  0.5070422535211268  0.0000000000000000 B
   0.6408450704225352  0.5633802816901408  0.0000000000000000 B
   0.7394366197183099  0.9577464788732395  0.0000000000000000 B
   0.7323943661971830  0.9295774647887323  0.0000000000000000 B
   0.7253521126760563  0.9014084507042253  0.0000000000000000 B
   0.7183098591549295  0.8732394366197183  0.0000000000000000 B
   0.7112676056338028  0.8450704225352113  0.0000000000000000 B
   0.7042253521126760  0.8169014084507042  0.0000000000000000 B
   0.6338028169014085  0.5352112676056338  0.0000000000000000 B
   0.6971830985915493  0.7887323943661972  0.0000000000000000 B
   0.6830985915492958  0.7323943661971830  0.0000000000000000 B
   0.6760563380281690  0.7042253521126760  0.0000000000000000 B
   0.6690140845070423  0.6760563380281690  0.0000000000000000 B
   0.6619718309859155  0.6478873239436620  0.0000000000000000 B
   0.6549295774647887  0.6197183098591550  0.0000000000000000 B
   0.6478873239436620  0.5915492957746478  0.0000000000000000 B
   0.6901408450704225  0.7605633802816900  0.0000000000000000 B
   0.0070422535211268  0.0281690140845070  0.0000000000000000 B
