B129
 1.000000
    -1.6999999999999886   17.6669182367040207    0.0000000000000000
   -17.8499999999999375   -4.4167295591760478    0.0000000000000000
     0.0000000000000000    0.0000000000000000   10.8800000000000008
B
129
Direct
   0.0000000000000000  0.0000000000000000  0.0000000000000000 B
   0.6511627906977040  0.6046511627907094  0.0000000000000000 B
   0.5581395348837503  0.5658914728682287  0.0000000000000000 B
   0.4651162790697985  0.5271317829457485  0.0000000000000000 B
   0.3720930232558430  0.4883720930232678  0.0000000000000000 B
   0.2790697674418894  0.4496124031007867  0.0000000000000000 B
   0.1860465116279357  0.4108527131783060  0.0000000000000000 B
   0.0930232558139821  0.3720930232558253  0.0000000000000000 B
   0.0000000000000284  0.3333333333333446  0.0000000000000000 B
   0.9069767441860739  0.2945736434108635  0.0000000000000000 B
   0.8139534883721211  0.2558139534883832  0.0000000000000000 B
   0.7209302325581675  0.2170542635659025  0.0000000000000000 B
   0.6279069767442138  0.1782945736434218  0.0000000000000000 B
   0.5348837209302593  0.1395348837209407  0.0000000000000000 B
   0.7441860465116577  0.6434108527131905  0.0000000000000000 B
   0.4418604651163056  0.1007751937984600  0.0000000000000000 B
   0.2558139534883974  0.0232558139534982  0.0000000000000000 B
   0.1627906976744438  0.9844961240310175  0.0000000000000000 B
   0.0697674418604892  0.9457364341085368  0.0000000000000000 B
   0.9767441860465365  0.9069767441860566  0.0000000000000000 B
   0.8837209302325828  0.8682170542635759  0.0000000000000000 B
   0.7906976744186291  0.8294573643410947  0.0000000000000000 B
   0.6976744186046746  0.7906976744186140  0.0000000000000000 B
   0.6046511627907210  0.7519379844961334  0.0000000000000000 B
   0.5116279069767673  0.7131782945736522  0.0000000000000000 B
   0.4186046511628128  0.6744186046511715  0.0000000000000000 B
   0.3255813953488600  0.6356589147286913  0.0000000000000000 B
   0.2325581395349063  0.5968992248062106  0.0000000000000000 B
   0.1395348837209527  0.5581395348837295  0.0000000000000000 B
   0.3488372093023511  0.0620155038759793  0.0000000000000000 B
   0.8372093023256131  0.6821705426356712  0.0000000000000000 B
   0.9302325581395667  0.7209302325581519  0.0000000000000000 B
   0.0232558139535204  0.7596899224806331  0.0000000000000000 B
   0.7209302325581799  0.8837209302325748  0.0000000000000000 B
   0.6279069767442262  0.8449612403100932  0.0000000000000000 B
   0.5348837209302726  0.8062015503876125  0.0000000000000000 B
   0.4418604651163207  0.7674418604651327  0.0000000000000000 B
   0.3488372093023653  0.7286821705426521  0.0000000000000000 B
   0.2558139534884116  0.6899224806201705  0.0000000000000000 B
   0.1627906976744580  0.6511627906976898  0.0000000000000000 B
   0.0697674418605043  0.6124031007752091  0.0000000000000000 B
   0.9767441860465507  0.5736434108527284  0.0000000000000000 B
   0.8837209302325970  0.5348837209302477  0.0000000000000000 B
   0.7906976744186434  0.4961240310077670  0.0000000000000000 B
   0.6976744186046897  0.4573643410852863  0.0000000000000000 B
   0.6046511627907361  0.4186046511628057  0.0000000000000000 B
   0.5116279069767824  0.3798449612403250  0.0000000000000000 B
   0.4186046511628270  0.3410852713178443  0.0000000000000000 B
   0.3255813953488733  0.3023255813953636  0.0000000000000000 B
   0.2325581395349197  0.2635658914728820  0.0000000000000000 B
   0.1395348837209660  0.2248062015504013  0.0000000000000000 B
   0.0465116279070124  0.1860465116279206  0.0000000000000000 B
   0.9534883720930587  0.1472868217054408  0.0000000000000000 B
   0.8604651162791050  0.1085271317829593  0.0000000000000000 B
   0.7674418604651514  0.0697674418604786  0.0000000000000000 B
   0.6744186046511977  0.0310077519379979  0.0000000000000000 B
   0.5813953488372423  0.9922480620155172  0.0000000000000000 B
   0.4883720930232887  0.9534883720930365  0.0000000000000000 B
   0.3953488372093350  0.9147286821705558  0.0000000000000000 B
   0.3023255813953831  0.8759689922480751  0.0000000000000000 B
   0.2093023255814277  0.8372093023255944  0.0000000000000000 B
   0.1162790697674740  0.7984496124031137  0.0000000000000000 B
   0.0465116279069981  0.5193798449612488  0.0000000000000000 B
   0.8139534883721353  0.9224806201550555  0.0000000000000000 B
   0.9534883720930445  0.4806201550387681  0.0000000000000000 B
   0.7674418604651363  0.4031007751938063  0.0000000000000000 B
   0.6046511627907067  0.0852713178294611  0.0000000000000000 B
   0.5116279069767531  0.0465116279069802  0.0000000000000000 B
   0.4186046511627994  0.0077519379844995  0.0000000000000000 B
   0.3255813953488458  0.9689922480620188  0.0000000000000000 B
   0.2325581395348917  0.9302325581395380  0.0000000000000000 B
   0.1395348837209376  0.8914728682170572  0.0000000000000000 B
   0.0465116279069839  0.8527131782945765  0.0000000000000000 B
   0.9534883720930303  0.8139534883720958  0.0000000000000000 B
   0.8604651162790764  0.7751937984496150  0.0000000000000000 B
   0.7674418604651223  0.7364341085271342  0.0000000000000000 B
   0.6744186046511687  0.6976744186046535  0.0000000000000000 B
   0.5813953488372150  0.6589147286821728  0.0000000000000000 B
   0.4883720930232611  0.6201550387596920  0.0000000000000000 B
   0.6976744186046608  0.1240310077519418  0.0000000000000000 B
   0.3953488372093072  0.5813953488372112  0.0000000000000000 B
   0.2093023255813997  0.5038759689922497  0.0000000000000000 B
   0.1162790697674458  0.4651162790697690  0.0000000000000000 B
   0.0232558139534920  0.4263565891472882  0.0000000000000000 B
   0.9302325581395382  0.3875968992248075  0.0000000000000000 B
   0.8372093023255843  0.3488372093023268  0.0000000000000000 B
   0.7441860465116306  0.3100775193798460  0.0000000000000000 B
   0.6511627906976767  0.2713178294573653  0.0000000000000000 B
   0.5581395348837229  0.2325581395348845  0.0000000000000000 B
   0.4651162790697691  0.1937984496124038  0.0000000000000000 B
   0.3720930232558153  0.1550387596899230  0.0000000000000000 B
   0.2790697674418615  0.1162790697674422  0.0000000000000000 B
   0.1860465116279076  0.0775193798449615  0.0000000000000000 B
   0.0930232558139538  0.0387596899224808  0.0000000000000000 B
   0.3023255813953534  0.5426356589147305  0.0000000000000000 B
   0.7906976744186145  0.1627906976744224  0.0000000000000000 B
   0.8837209302325681  0.2015503875969031  0.0000000000000000 B
   0.9767441860465222  0.2403100775193840  0.0000000000000000 B
   0.6744186046511826  0.3643410852713260  0.0000000000000000 B
   0.5813953488372290  0.3255813953488449  0.0000000000000000 B
   0.4883720930232753  0.2868217054263642  0.0000000000000000 B
   0.3953488372093217  0.2480620155038835  0.0000000000000000 B
   0.3023255813953680  0.2093023255814028  0.0000000000000000 B
   0.2093023255814135  0.1705426356589221  0.0000000000000000 B
   0.1162790697674598  0.1317829457364410  0.0000000000000000 B
   0.0232558139535062  0.0930232558139603  0.0000000000000000 B
   0.9302325581395525  0.0542635658914796  0.0000000000000000 B
   0.8372093023255989  0.0155038759689989  0.0000000000000000 B
   0.7441860465116443  0.9767441860465182  0.0000000000000000 B
   0.6511627906976916  0.9379844961240376  0.0000000000000000 B
   0.5581395348837370  0.8992248062015569  0.0000000000000000 B
   0.4651162790697834  0.8604651162790760  0.0000000000000000 B
   0.3720930232558288  0.8217054263565953  0.0000000000000000 B
   0.2790697674418752  0.7829457364341144  0.0000000000000000 B
   0.1860465116279215  0.7441860465116339  0.0000000000000000 B
   0.0930232558139679  0.7054263565891530  0.0000000000000000 B
   0.0000000000000142  0.6666666666666723  0.0000000000000000 B
   0.9069767441860606  0.6279069767441916  0.0000000000000000 B
   0.8139534883721069  0.5891472868217109  0.0000000000000000 B
   0.7209302325581528  0.5503875968992300  0.0000000000000000 B
   0.6279069767441987  0.5116279069767491  0.0000000000000000 B
   0.5348837209302446  0.4728682170542684  0.0000000000000000 B
   0.4418604651162914  0.4341085271317879  0.0000000000000000 B
   0.3488372093023373  0.3953488372093070  0.0000000000000000 B
   0.2558139534883836  0.3565891472868261  0.0000000000000000 B
   0.1627906976744300  0.3178294573643456  0.0000000000000000 B
   0.0697674418604763  0.2790697674418647  0.0000000000000000 B
   0.8604651162790899  0.4418604651162874  0.0000000000000000 B
   0.9069767441860890  0.9612403100775362  0.0000000000000000 B
