B137
 1.000000
    15.3000000000000114   -5.8889727455679974    0.0000000000000000
     0.8500000000000085   22.0836477958800117    0.0000000000000000
     0.0000000000000000    0.0000000000000000   10.8800000000000008
B
137
Direct
   0.0000000000000000  0.0000000000000000  0.0000000000000000 B
   0.2189781021897810  0.0583941605839415  0.0000000000000000 B
   0.2773722627737225  0.0072992700729930  0.0000000000000000 B
   0.3357664233576640  0.9562043795620436  0.0000000000000000 B
   0.3941605839416056  0.9051094890510951  0.0000000000000000 B
   0.4525547445255480  0.8540145985401457  0.0000000000000000 B
   0.5109489051094895  0.8029197080291963  0.0000000000000000 B
   0.5693430656934311  0.7518248175182478  0.0000000000000000 B
   0.6277372262773726  0.7007299270072993  0.0000000000000000 B
   0.6861313868613141  0.6496350364963499  0.0000000000000000 B
   0.7445255474452557  0.5985401459854014  0.0000000000000000 B
   0.8029197080291972  0.5474452554744520  0.0000000000000000 B
   0.8613138686131387  0.4963503649635035  0.0000000000000000 B
   0.9197080291970803  0.4452554744525550  0.0000000000000000 B
   0.9781021897810218  0.3941605839416056  0.0000000000000000 B
   0.1605839416058394  0.1094890510948900  0.0000000000000000 B
   0.0364963503649633  0.3430656934306571  0.0000000000000000 B
   0.1532846715328473  0.2408759124087583  0.0000000000000000 B
   0.2116788321167888  0.1897810218978098  0.0000000000000000 B
   0.2700729927007304  0.1386861313868613  0.0000000000000000 B
   0.3284671532846719  0.0875912408759119  0.0000000000000000 B
   0.3868613138686134  0.0364963503649633  0.0000000000000000 B
   0.4452554744525550  0.9854014598540144  0.0000000000000000 B
   0.5036496350364965  0.9343065693430654  0.0000000000000000 B
   0.5620437956204380  0.8832116788321169  0.0000000000000000 B
   0.6204379562043796  0.8321167883211680  0.0000000000000000 B
   0.6788321167883211  0.7810218978102190  0.0000000000000000 B
   0.7372262773722627  0.7299270072992701  0.0000000000000000 B
   0.7956204379562042  0.6788321167883211  0.0000000000000000 B
   0.8540145985401457  0.6277372262773726  0.0000000000000000 B
   0.9124087591240881  0.5766423357664228  0.0000000000000000 B
   0.0948905109489049  0.2919708029197086  0.0000000000000000 B
   0.1021897810218979  0.1605839416058394  0.0000000000000000 B
   0.0437956204379564  0.2116788321167880  0.0000000000000000 B
   0.9854014598540148  0.2627737226277373  0.0000000000000000 B
   0.1751824817518255  0.8467153284671527  0.0000000000000000 B
   0.2335766423357670  0.7956204379562042  0.0000000000000000 B
   0.2919708029197086  0.7445255474452548  0.0000000000000000 B
   0.3503649635036501  0.6934306569343063  0.0000000000000000 B
   0.4087591240875916  0.6423357664233578  0.0000000000000000 B
   0.4671532846715332  0.5912408759124084  0.0000000000000000 B
   0.5255474452554747  0.5401459854014599  0.0000000000000000 B
   0.5839416058394162  0.4890510948905105  0.0000000000000000 B
   0.6423357664233578  0.4379562043795620  0.0000000000000000 B
   0.7007299270072993  0.3868613138686134  0.0000000000000000 B
   0.7591240875912408  0.3357664233576640  0.0000000000000000 B
   0.8175182481751824  0.2846715328467155  0.0000000000000000 B
   0.8759124087591239  0.2335766423357661  0.0000000000000000 B
   0.9343065693430663  0.1824817518248167  0.0000000000000000 B
   0.9927007299270079  0.1313868613138682  0.0000000000000000 B
   0.0510948905109494  0.0802919708029197  0.0000000000000000 B
   0.1094890510948909  0.0291970802919703  0.0000000000000000 B
   0.9270072992700733  0.3138686131386859  0.0000000000000000 B
   0.8686131386861318  0.3649635036496344  0.0000000000000000 B
   0.8102189781021902  0.4160583941605838  0.0000000000000000 B
   0.7518248175182487  0.4671532846715323  0.0000000000000000 B
   0.6934306569343072  0.5182481751824817  0.0000000000000000 B
   0.6350364963503647  0.5693430656934311  0.0000000000000000 B
   0.9708029197080297  0.5255474452554738  0.0000000000000000 B
   0.5766423357664232  0.6204379562043796  0.0000000000000000 B
   0.4598540145985401  0.7226277372262775  0.0000000000000000 B
   0.4014598540145986  0.7737226277372260  0.0000000000000000 B
   0.3430656934306571  0.8248175182481754  0.0000000000000000 B
   0.2846715328467155  0.8759124087591239  0.0000000000000000 B
   0.2262773722627740  0.9270072992700724  0.0000000000000000 B
   0.1678832116788325  0.9781021897810218  0.0000000000000000 B
   0.5182481751824817  0.6715328467153281  0.0000000000000000 B
   0.1167883211678831  0.8978102189781021  0.0000000000000000 B
   0.0291970802919708  0.4744525547445257  0.0000000000000000 B
   0.1459854014598543  0.3722627737226274  0.0000000000000000 B
   0.2481751824817520  0.5328467153284671  0.0000000000000000 B
   0.3065693430656935  0.4817518248175181  0.0000000000000000 B
   0.3649635036496350  0.4306569343065694  0.0000000000000000 B
   0.4233576642335768  0.3795620437956204  0.0000000000000000 B
   0.4817518248175183  0.3284671532846715  0.0000000000000000 B
   0.5401459854014599  0.2773722627737225  0.0000000000000000 B
   0.5985401459854014  0.2262773722627738  0.0000000000000000 B
   0.6569343065693432  0.1751824817518248  0.0000000000000000 B
   0.7153284671532847  0.1240875912408759  0.0000000000000000 B
   0.7737226277372262  0.0729927007299271  0.0000000000000000 B
   0.8321167883211680  0.0218978102189780  0.0000000000000000 B
   0.8905109489051095  0.9708029197080292  0.0000000000000000 B
   0.9489051094890510  0.9197080291970803  0.0000000000000000 B
   0.0072992700729927  0.8686131386861314  0.0000000000000000 B
   0.1897810218978102  0.5839416058394160  0.0000000000000000 B
   0.0656934306569343  0.8175182481751825  0.0000000000000000 B
   0.1824817518248175  0.7153284671532847  0.0000000000000000 B
   0.2408759124087592  0.6642335766423357  0.0000000000000000 B
   0.2992700729927007  0.6131386861313869  0.0000000000000000 B
   0.3576642335766423  0.5620437956204379  0.0000000000000000 B
   0.4160583941605840  0.5109489051094890  0.0000000000000000 B
   0.4744525547445255  0.4598540145985401  0.0000000000000000 B
   0.5328467153284672  0.4087591240875912  0.0000000000000000 B
   0.5912408759124088  0.3576642335766423  0.0000000000000000 B
   0.6496350364963503  0.3065693430656934  0.0000000000000000 B
   0.7080291970802920  0.2554744525547445  0.0000000000000000 B
   0.7664233576642336  0.2043795620437956  0.0000000000000000 B
   0.8248175182481752  0.1532846715328467  0.0000000000000000 B
   0.8832116788321168  0.1021897810218978  0.0000000000000000 B
   0.9416058394160584  0.0510948905109489  0.0000000000000000 B
   0.1240875912408760  0.7664233576642335  0.0000000000000000 B
   0.1313868613138687  0.6350364963503650  0.0000000000000000 B
   0.0729927007299271  0.6861313868613137  0.0000000000000000 B
   0.0145985401459854  0.7372262773722629  0.0000000000000000 B
   0.2043795620437958  0.3211678832116789  0.0000000000000000 B
   0.2627737226277373  0.2700729927007299  0.0000000000000000 B
   0.3211678832116789  0.2189781021897810  0.0000000000000000 B
   0.3795620437956204  0.1678832116788320  0.0000000000000000 B
   0.4379562043795620  0.1167883211678831  0.0000000000000000 B
   0.4963503649635039  0.0656934306569341  0.0000000000000000 B
   0.5547445255474455  0.0145985401459852  0.0000000000000000 B
   0.6131386861313870  0.9635036496350362  0.0000000000000000 B
   0.6715328467153285  0.9124087591240877  0.0000000000000000 B
   0.7299270072992701  0.8613138686131387  0.0000000000000000 B
   0.7883211678832116  0.8102189781021898  0.0000000000000000 B
   0.8467153284671536  0.7591240875912408  0.0000000000000000 B
   0.9051094890510951  0.7080291970802919  0.0000000000000000 B
   0.9635036496350367  0.6569343065693429  0.0000000000000000 B
   0.0218978102189782  0.6058394160583940  0.0000000000000000 B
   0.0802919708029197  0.5547445255474450  0.0000000000000000 B
   0.1386861313868613  0.5036496350364965  0.0000000000000000 B
   0.9562043795620441  0.7883211678832114  0.0000000000000000 B
   0.8978102189781021  0.8394160583941606  0.0000000000000000 B
   0.8394160583941606  0.8905109489051095  0.0000000000000000 B
   0.7810218978102190  0.9416058394160585  0.0000000000000000 B
   0.7226277372262775  0.9927007299270072  0.0000000000000000 B
   0.6642335766423360  0.0437956204379559  0.0000000000000000 B
   0.0875912408759127  0.4233576642335763  0.0000000000000000 B
   0.6058394160583944  0.0948905109489049  0.0000000000000000 B
   0.4890510948905109  0.1970802919708028  0.0000000000000000 B
   0.4306569343065694  0.2481751824817517  0.0000000000000000 B
   0.3722627737226278  0.2992700729927007  0.0000000000000000 B
   0.3138686131386863  0.3503649635036497  0.0000000000000000 B
   0.2554744525547448  0.4014598540145982  0.0000000000000000 B
   0.1970802919708028  0.4525547445255476  0.0000000000000000 B
   0.5474452554744524  0.1459854014598543  0.0000000000000000 B
   0.0583941605839415  0.9489051094890515  0.0000000000000000 B
