B137
 1.000000
    -1.7000000000000028  -11.7779454911360233   -0.0000000000000000
   -28.0499999999999829    7.3612159319600039   -0.0000000000000000
    -0.0000000000000000   -0.0000000000000000  -10.8800000000000008
B
137
Direct
   0.0000000000000000  0.0000000000000000  0.0000000000000000 B
   0.1167883211679186  0.3868613138686010  0.0000000000000000 B
   0.0145985401460216  0.4233576642335644  0.0000000000000000 B
   0.9124087591241228  0.4598540145985281  0.0000000000000000 B
   0.8102189781022258  0.4963503649634915  0.0000000000000000 B
   0.7080291970803252  0.5328467153284557  0.0000000000000000 B
   0.6058394160584282  0.5693430656934195  0.0000000000000000 B
   0.5036496350365294  0.6058394160583829  0.0000000000000000 B
   0.4014598540146306  0.6423357664233467  0.0000000000000000 B
   0.2992700729927336  0.6788321167883100  0.0000000000000000 B
   0.1970802919708348  0.7153284671532738  0.0000000000000000 B
   0.0948905109489377  0.7518248175182372  0.0000000000000000 B
   0.9927007299270389  0.7883211678832009  0.0000000000000000 B
   0.8905109489051419  0.8248175182481643  0.0000000000000000 B
   0.7883211678832431  0.8613138686131281  0.0000000000000000 B
   0.2189781021898174  0.3503649635036372  0.0000000000000000 B
   0.6861313868613443  0.8978102189780914  0.0000000000000000 B
   0.4817518248175467  0.9708029197080195  0.0000000000000000 B
   0.3795620437956497  0.0072992700729828  0.0000000000000000 B
   0.2773722627737509  0.0437956204379466  0.0000000000000000 B
   0.1751824817518539  0.0802919708029100  0.0000000000000000 B
   0.0729927007299551  0.1167883211678737  0.0000000000000000 B
   0.9708029197080572  0.1532846715328371  0.0000000000000000 B
   0.8686131386861593  0.1897810218978009  0.0000000000000000 B
   0.7664233576642614  0.2262773722627642  0.0000000000000000 B
   0.6642335766423626  0.2627737226277280  0.0000000000000000 B
   0.5620437956204647  0.2992700729926914  0.0000000000000000 B
   0.4598540145985668  0.3357664233576552  0.0000000000000000 B
   0.3576642335766689  0.3722627737226190  0.0000000000000000 B
   0.2554744525547710  0.4087591240875823  0.0000000000000000 B
   0.1532846715328713  0.4452554744525465  0.0000000000000000 B
   0.5839416058394473  0.9343065693430552  0.0000000000000000 B
   0.3211678832117162  0.3138686131386739  0.0000000000000000 B
   0.4233576642336132  0.2773722627737101  0.0000000000000000 B
   0.5255474452555120  0.2408759124087467  0.0000000000000000 B
   0.6934306569343534  0.1094890510948741  0.0000000000000000 B
   0.5912408759124563  0.1459854014598383  0.0000000000000000 B
   0.4890510948905575  0.1824817518248016  0.0000000000000000 B
   0.3868613138686605  0.2189781021897650  0.0000000000000000 B
   0.2846715328467617  0.2554744525547283  0.0000000000000000 B
   0.1824817518248629  0.2919708029196926  0.0000000000000000 B
   0.0802919708029659  0.3284671532846559  0.0000000000000000 B
   0.9781021897810671  0.3649635036496193  0.0000000000000000 B
   0.8759124087591701  0.4014598540145835  0.0000000000000000 B
   0.7737226277372713  0.4379562043795469  0.0000000000000000 B
   0.6715328467153743  0.4744525547445102  0.0000000000000000 B
   0.5693430656934755  0.5109489051094736  0.0000000000000000 B
   0.4671532846715767  0.5474452554744378  0.0000000000000000 B
   0.3649635036496779  0.5839416058394011  0.0000000000000000 B
   0.2627737226277791  0.6204379562043654  0.0000000000000000 B
   0.1605839416058821  0.6569343065693287  0.0000000000000000 B
   0.0583941605839833  0.6934306569342921  0.0000000000000000 B
   0.6277372262774090  0.2043795620437829  0.0000000000000000 B
   0.7299270072993078  0.1678832116788196  0.0000000000000000 B
   0.8321167883212048  0.1313868613138558  0.0000000000000000 B
   0.9343065693431036  0.0948905109488924  0.0000000000000000 B
   0.0364963503650024  0.0583941605839287  0.0000000000000000 B
   0.1386861313869012  0.0218978102189644  0.0000000000000000 B
   0.0510948905109734  0.4817518248175099  0.0000000000000000 B
   0.2408759124088000  0.9854014598540006  0.0000000000000000 B
   0.4452554744525958  0.9124087591240739  0.0000000000000000 B
   0.5474452554744929  0.8759124087591106  0.0000000000000000 B
   0.6496350364963916  0.8394160583941463  0.0000000000000000 B
   0.7518248175182904  0.8029197080291830  0.0000000000000000 B
   0.8540145985401875  0.7664233576642197  0.0000000000000000 B
   0.9562043795620863  0.7299270072992563  0.0000000000000000 B
   0.3430656934306970  0.9489051094890373  0.0000000000000000 B
   0.7956204379562539  0.0729927007299107  0.0000000000000000 B
   0.9489051094890755  0.5182481751824732  0.0000000000000000 B
   0.7445255474452788  0.5912408759124008  0.0000000000000000 B
   0.0656934306569448  0.9051094890510913  0.0000000000000000 B
   0.9635036496350469  0.9416058394160549  0.0000000000000000 B
   0.8613138686131490  0.9781021897810185  0.0000000000000000 B
   0.7591240875912506  0.0145985401459822  0.0000000000000000 B
   0.6569343065693523  0.0510948905109457  0.0000000000000000 B
   0.5547445255474543  0.0875912408759093  0.0000000000000000 B
   0.4525547445255564  0.1240875912408729  0.0000000000000000 B
   0.3503649635036576  0.1605839416058367  0.0000000000000000 B
   0.2481751824817597  0.1970802919708002  0.0000000000000000 B
   0.1459854014598618  0.2335766423357638  0.0000000000000000 B
   0.0437956204379635  0.2700729927007275  0.0000000000000000 B
   0.9416058394160653  0.3065693430656911  0.0000000000000000 B
   0.8394160583941672  0.3430656934306547  0.0000000000000000 B
   0.7372262773722689  0.3795620437956183  0.0000000000000000 B
   0.1678832116788436  0.8686131386861276  0.0000000000000000 B
   0.6350364963503707  0.4160583941605820  0.0000000000000000 B
   0.4306569343065745  0.4890510948905092  0.0000000000000000 B
   0.3284671532846761  0.5255474452554729  0.0000000000000000 B
   0.2262773722627782  0.5620437956204365  0.0000000000000000 B
   0.1240875912408799  0.5985401459854001  0.0000000000000000 B
   0.0218978102189817  0.6350364963503637  0.0000000000000000 B
   0.9197080291970836  0.6715328467153274  0.0000000000000000 B
   0.8175182481751854  0.7080291970802910  0.0000000000000000 B
   0.7153284671532872  0.7445255474452546  0.0000000000000000 B
   0.6131386861313891  0.7810218978102182  0.0000000000000000 B
   0.5109489051094909  0.8175182481751819  0.0000000000000000 B
   0.4087591240875927  0.8540145985401455  0.0000000000000000 B
   0.3065693430656946  0.8905109489051091  0.0000000000000000 B
   0.2043795620437963  0.9270072992700727  0.0000000000000000 B
   0.1021897810218982  0.9635036496350364  0.0000000000000000 B
   0.5328467153284724  0.4525547445255457  0.0000000000000000 B
   0.2700729927007415  0.8321167883211640  0.0000000000000000 B
   0.3722627737226394  0.7956204379562004  0.0000000000000000 B
   0.4744525547445377  0.7591240875912366  0.0000000000000000 B
   0.6423357664233809  0.6277372262773642  0.0000000000000000 B
   0.5401459854014830  0.6642335766423280  0.0000000000000000 B
   0.4379562043795850  0.7007299270072918  0.0000000000000000 B
   0.3357664233576871  0.7372262773722551  0.0000000000000000 B
   0.2335766423357883  0.7737226277372189  0.0000000000000000 B
   0.1313868613138895  0.8102189781021827  0.0000000000000000 B
   0.0291970802919916  0.8467153284671460  0.0000000000000000 B
   0.9270072992700937  0.8832116788321098  0.0000000000000000 B
   0.8248175182481958  0.9197080291970732  0.0000000000000000 B
   0.7226277372262979  0.9562043795620370  0.0000000000000000 B
   0.6204379562044000  0.9927007299270003  0.0000000000000000 B
   0.5182481751825012  0.0291970802919643  0.0000000000000000 B
   0.4160583941606024  0.0656934306569279  0.0000000000000000 B
   0.3138686131387045  0.1021897810218915  0.0000000000000000 B
   0.2116788321168066  0.1386861313868550  0.0000000000000000 B
   0.1094890510949087  0.1751824817518186  0.0000000000000000 B
   0.0072992700730108  0.2116788321167822  0.0000000000000000 B
   0.5766423357664356  0.7226277372262733  0.0000000000000000 B
   0.6788321167883344  0.6861313868613095  0.0000000000000000 B
   0.7810218978102323  0.6496350364963457  0.0000000000000000 B
   0.8832116788321307  0.6131386861313821  0.0000000000000000 B
   0.9854014598540286  0.5766423357664185  0.0000000000000000 B
   0.0875912408759270  0.5401459854014550  0.0000000000000000 B
   0.8467153284671767  0.5547445255474370  0.0000000000000000 B
   0.1897810218978249  0.5036496350364914  0.0000000000000000 B
   0.3941605839416216  0.4306569343065640  0.0000000000000000 B
   0.4963503649635195  0.3941605839416005  0.0000000000000000 B
   0.5985401459854174  0.3576642335766369  0.0000000000000000 B
   0.7007299270073153  0.3211678832116733  0.0000000000000000 B
   0.8029197080292141  0.2846715328467098  0.0000000000000000 B
   0.9051094890511129  0.2481751824817457  0.0000000000000000 B
   0.2919708029197237  0.4671532846715276  0.0000000000000000 B
   0.8978102189781509  0.0364963503649465  0.0000000000000000 B
