B137
 1.000000
   -13.5999999999999943   -8.8334591183519819   -0.0000000000000000
    -9.3500000000000014   19.1391614230959988   -0.0000000000000000
    -0.0000000000000000   -0.0000000000000000  -10.8800000000000008
B
137
Direct
   0.0000000000000000  0.0000000000000000  0.0000000000000000 B
   0.2773722627737226  0.0510948905109485  0.0000000000000000 B
   0.2846715328467153  0.1313868613138682  0.0000000000000000 B
   0.2919708029197080  0.2116788321167880  0.0000000000000000 B
   0.2992700729927007  0.2919708029197077  0.0000000000000000 B
   0.3065693430656935  0.3722627737226283  0.0000000000000000 B
   0.3138686131386862  0.4525547445255480  0.0000000000000000 B
   0.3211678832116789  0.5328467153284677  0.0000000000000000 B
   0.3284671532846716  0.6131386861313874  0.0000000000000000 B
   0.3357664233576643  0.6934306569343072  0.0000000000000000 B
   0.3430656934306570  0.7737226277372269  0.0000000000000000 B
   0.3503649635036497  0.8540145985401466  0.0000000000000000 B
   0.3576642335766423  0.9343065693430654  0.0000000000000000 B
   0.3649635036496350  0.0145985401459852  0.0000000000000000 B
   0.3722627737226277  0.0948905109489049  0.0000000000000000 B
   0.2700729927007299  0.9708029197080297  0.0000000000000000 B
   0.3795620437956204  0.1751824817518246  0.0000000000000000 B
   0.3941605839416059  0.3357664233576649  0.0000000000000000 B
   0.4014598540145986  0.4160583941605847  0.0000000000000000 B
   0.4087591240875913  0.4963503649635044  0.0000000000000000 B
   0.4160583941605840  0.5766423357664241  0.0000000000000000 B
   0.4233576642335767  0.6569343065693438  0.0000000000000000 B
   0.4306569343065694  0.7372262773722635  0.0000000000000000 B
   0.4379562043795621  0.8175182481751824  0.0000000000000000 B
   0.4452554744525548  0.8978102189781021  0.0000000000000000 B
   0.4525547445255474  0.9781021897810218  0.0000000000000000 B
   0.4598540145985401  0.0583941605839415  0.0000000000000000 B
   0.4671532846715328  0.1386861313868613  0.0000000000000000 B
   0.4744525547445255  0.2189781021897810  0.0000000000000000 B
   0.4817518248175182  0.2992700729927007  0.0000000000000000 B
   0.4890510948905110  0.3795620437956213  0.0000000000000000 B
   0.3868613138686131  0.2554744525547443  0.0000000000000000 B
   0.2627737226277372  0.8905109489051100  0.0000000000000000 B
   0.2554744525547445  0.8102189781021902  0.0000000000000000 B
   0.2481751824817519  0.7299270072992705  0.0000000000000000 B
   0.0218978102189782  0.2408759124087609  0.0000000000000000 B
   0.0291970802919709  0.3211678832116789  0.0000000000000000 B
   0.0364963503649636  0.4014598540145986  0.0000000000000000 B
   0.0437956204379563  0.4817518248175183  0.0000000000000000 B
   0.0510948905109490  0.5620437956204380  0.0000000000000000 B
   0.0583941605839416  0.6423357664233578  0.0000000000000000 B
   0.0656934306569343  0.7226277372262775  0.0000000000000000 B
   0.0729927007299270  0.8029197080291972  0.0000000000000000 B
   0.0802919708029197  0.8832116788321169  0.0000000000000000 B
   0.0875912408759124  0.9635036496350367  0.0000000000000000 B
   0.0948905109489051  0.0437956204379564  0.0000000000000000 B
   0.1021897810218978  0.1240875912408761  0.0000000000000000 B
   0.1094890510948905  0.2043795620437958  0.0000000000000000 B
   0.1167883211678833  0.2846715328467155  0.0000000000000000 B
   0.1240875912408760  0.3649635036496353  0.0000000000000000 B
   0.1313868613138687  0.4452554744525550  0.0000000000000000 B
   0.1386861313868614  0.5255474452554747  0.0000000000000000 B
   0.2408759124087592  0.6496350364963508  0.0000000000000000 B
   0.2335766423357665  0.5693430656934311  0.0000000000000000 B
   0.2262773722627738  0.4890510948905114  0.0000000000000000 B
   0.2189781021897811  0.4087591240875916  0.0000000000000000 B
   0.2116788321167884  0.3284671532846719  0.0000000000000000 B
   0.2043795620437956  0.2481751824817522  0.0000000000000000 B
   0.4963503649635037  0.4598540145985410  0.0000000000000000 B
   0.1970802919708029  0.1678832116788325  0.0000000000000000 B
   0.1824817518248175  0.0072992700729930  0.0000000000000000 B
   0.1751824817518248  0.9270072992700733  0.0000000000000000 B
   0.1678832116788321  0.8467153284671536  0.0000000000000000 B
   0.1605839416058394  0.7664233576642339  0.0000000000000000 B
   0.1532846715328468  0.6861313868613141  0.0000000000000000 B
   0.1459854014598541  0.6058394160583944  0.0000000000000000 B
   0.1897810218978102  0.0875912408759127  0.0000000000000000 B
   0.0145985401459854  0.1605839416058394  0.0000000000000000 B
   0.5036496350364963  0.5401459854014599  0.0000000000000000 B
   0.5182481751824818  0.7007299270072993  0.0000000000000000 B
   0.7810218978102190  0.5912408759124088  0.0000000000000000 B
   0.7883211678832117  0.6715328467153285  0.0000000000000000 B
   0.7956204379562044  0.7518248175182483  0.0000000000000000 B
   0.8029197080291971  0.8321167883211680  0.0000000000000000 B
   0.8102189781021898  0.9124087591240877  0.0000000000000000 B
   0.8175182481751825  0.9927007299270074  0.0000000000000000 B
   0.8248175182481752  0.0729927007299269  0.0000000000000000 B
   0.8321167883211679  0.1532846715328469  0.0000000000000000 B
   0.8394160583941606  0.2335766423357664  0.0000000000000000 B
   0.8467153284671532  0.3138686131386861  0.0000000000000000 B
   0.8540145985401459  0.3941605839416060  0.0000000000000000 B
   0.8613138686131387  0.4744525547445255  0.0000000000000000 B
   0.8686131386861313  0.5547445255474452  0.0000000000000000 B
   0.8759124087591241  0.6350364963503650  0.0000000000000000 B
   0.7737226277372262  0.5109489051094891  0.0000000000000000 B
   0.8832116788321168  0.7153284671532847  0.0000000000000000 B
   0.8978102189781022  0.8759124087591241  0.0000000000000000 B
   0.9051094890510949  0.9562043795620438  0.0000000000000000 B
   0.9124087591240876  0.0364963503649635  0.0000000000000000 B
   0.9197080291970803  0.1167883211678832  0.0000000000000000 B
   0.9270072992700730  0.1970802919708030  0.0000000000000000 B
   0.9343065693430657  0.2773722627737226  0.0000000000000000 B
   0.9416058394160584  0.3576642335766423  0.0000000000000000 B
   0.9489051094890510  0.4379562043795621  0.0000000000000000 B
   0.9562043795620438  0.5182481751824817  0.0000000000000000 B
   0.9635036496350365  0.5985401459854015  0.0000000000000000 B
   0.9708029197080292  0.6788321167883211  0.0000000000000000 B
   0.9781021897810219  0.7591240875912408  0.0000000000000000 B
   0.9854014598540146  0.8394160583941606  0.0000000000000000 B
   0.9927007299270073  0.9197080291970803  0.0000000000000000 B
   0.8905109489051095  0.7956204379562044  0.0000000000000000 B
   0.7664233576642336  0.4306569343065694  0.0000000000000000 B
   0.7591240875912408  0.3503649635036497  0.0000000000000000 B
   0.7518248175182481  0.2700729927007299  0.0000000000000000 B
   0.5255474452554745  0.7810218978102190  0.0000000000000000 B
   0.5328467153284672  0.8613138686131387  0.0000000000000000 B
   0.5401459854014599  0.9416058394160585  0.0000000000000000 B
   0.5474452554744526  0.0218978102189782  0.0000000000000000 B
   0.5547445255474452  0.1021897810218979  0.0000000000000000 B
   0.5620437956204380  0.1824817518248176  0.0000000000000000 B
   0.5693430656934306  0.2627737226277373  0.0000000000000000 B
   0.5766423357664234  0.3430656934306571  0.0000000000000000 B
   0.5839416058394160  0.4233576642335768  0.0000000000000000 B
   0.5912408759124088  0.5036496350364965  0.0000000000000000 B
   0.5985401459854014  0.5839416058394162  0.0000000000000000 B
   0.6058394160583942  0.6642335766423360  0.0000000000000000 B
   0.6131386861313869  0.7445255474452557  0.0000000000000000 B
   0.6204379562043796  0.8248175182481754  0.0000000000000000 B
   0.6277372262773723  0.9051094890510951  0.0000000000000000 B
   0.6350364963503650  0.9854014598540148  0.0000000000000000 B
   0.6423357664233577  0.0656934306569341  0.0000000000000000 B
   0.7445255474452555  0.1897810218978107  0.0000000000000000 B
   0.7372262773722628  0.1094890510948905  0.0000000000000000 B
   0.7299270072992701  0.0291970802919708  0.0000000000000000 B
   0.7226277372262774  0.9489051094890510  0.0000000000000000 B
   0.7153284671532847  0.8686131386861318  0.0000000000000000 B
   0.7080291970802920  0.7883211678832120  0.0000000000000000 B
   0.5109489051094891  0.6204379562043805  0.0000000000000000 B
   0.7007299270072993  0.7080291970802923  0.0000000000000000 B
   0.6861313868613139  0.5474452554744524  0.0000000000000000 B
   0.6788321167883211  0.4671532846715327  0.0000000000000000 B
   0.6715328467153285  0.3868613138686134  0.0000000000000000 B
   0.6642335766423357  0.3065693430656937  0.0000000000000000 B
   0.6569343065693432  0.2262773722627740  0.0000000000000000 B
   0.6496350364963503  0.1459854014598538  0.0000000000000000 B
   0.6934306569343065  0.6277372262773722  0.0000000000000000 B
   0.0072992700729927  0.0802919708029197  0.0000000000000000 B
