B136
 1.000000
    -1.6999999999999957  -14.7224318639199936   -0.0000000000000000
   -22.0999999999999943    8.8334591183520104   -0.0000000000000000
    -0.0000000000000000   -0.0000000000000000  -10.8800000000000008
B
136
Direct
   0.0000000000000000  0.0000000000000000  0.0000000000000000 B
   0.2794117647058796  0.1323529411764721  0.0000000000000000 B
   0.2058823529411735  0.1764705882352955  0.0000000000000000 B
   0.1323529411764679  0.2205882352941191  0.0000000000000000 B
   0.0588235294117618  0.2647058823529427  0.0000000000000000 B
   0.9852941176470562  0.3088235294117658  0.0000000000000000 B
   0.9117647058823506  0.3529411764705894  0.0000000000000000 B
   0.8382352941176445  0.3970588235294130  0.0000000000000000 B
   0.7647058823529389  0.4411764705882364  0.0000000000000000 B
   0.6911764705882328  0.4852941176470600  0.0000000000000000 B
   0.6176470588235272  0.5294117647058834  0.0000000000000000 B
   0.5441176470588212  0.5735294117647070  0.0000000000000000 B
   0.4705882352941155  0.6176470588235305  0.0000000000000000 B
   0.3970588235294095  0.6617647058823539  0.0000000000000000 B
   0.3235294117647038  0.7058823529411775  0.0000000000000000 B
   0.3529411764705852  0.0882352941176485  0.0000000000000000 B
   0.2499999999999982  0.7500000000000009  0.0000000000000000 B
   0.1029411764705865  0.8382352941176481  0.0000000000000000 B
   0.0294117647058805  0.8823529411764715  0.0000000000000000 B
   0.9558823529411749  0.9264705882352950  0.0000000000000000 B
   0.8823529411764690  0.9705882352941184  0.0000000000000000 B
   0.8088235294117632  0.0147058823529419  0.0000000000000000 B
   0.7352941176470573  0.0588235294117655  0.0000000000000000 B
   0.6617647058823515  0.1029411764705890  0.0000000000000000 B
   0.5882352941176456  0.1470588235294125  0.0000000000000000 B
   0.5147058823529398  0.1911764705882359  0.0000000000000000 B
   0.4411764705882339  0.2352941176470594  0.0000000000000000 B
   0.3676470588235283  0.2794117647058829  0.0000000000000000 B
   0.2941176470588225  0.3235294117647064  0.0000000000000000 B
   0.2205882352941166  0.3676470588235299  0.0000000000000000 B
   0.1470588235294108  0.4117647058823534  0.0000000000000000 B
   0.1764705882352922  0.7941176470588245  0.0000000000000000 B
   0.0735294117647050  0.4558823529411770  0.0000000000000000 B
   0.4264705882352913  0.0441176470588251  0.0000000000000000 B
   0.5735294117647025  0.9558823529411784  0.0000000000000000 B
   0.7794117647058778  0.6323529411764732  0.0000000000000000 B
   0.7058823529411713  0.6764705882352966  0.0000000000000000 B
   0.6323529411764657  0.7205882352941200  0.0000000000000000 B
   0.5588235294117601  0.7647058823529438  0.0000000000000000 B
   0.4852941176470544  0.8088235294117672  0.0000000000000000 B
   0.4117647058823479  0.8529411764705905  0.0000000000000000 B
   0.3382352941176423  0.8970588235294139  0.0000000000000000 B
   0.2647058823529367  0.9411764705882377  0.0000000000000000 B
   0.1911764705882311  0.9852941176470611  0.0000000000000000 B
   0.1176470588235246  0.0294117647058849  0.0000000000000000 B
   0.0441176470588189  0.0735294117647083  0.0000000000000000 B
   0.9705882352941133  0.1176470588235317  0.0000000000000000 B
   0.8970588235294077  0.1617647058823550  0.0000000000000000 B
   0.8235294117647012  0.2058823529411788  0.0000000000000000 B
   0.4999999999999969  0.0000000000000016  0.0000000000000000 B
   0.7499999999999956  0.2500000000000022  0.0000000000000000 B
   0.6029411764705843  0.3382352941176490  0.0000000000000000 B
   0.5294117647058787  0.3823529411764723  0.0000000000000000 B
   0.4558823529411722  0.4264705882352962  0.0000000000000000 B
   0.3823529411764666  0.4705882352941195  0.0000000000000000 B
   0.3088235294117609  0.5147058823529433  0.0000000000000000 B
   0.2352941176470553  0.5588235294117663  0.0000000000000000 B
   0.1617647058823488  0.6029411764705901  0.0000000000000000 B
   0.0882352941176432  0.6470588235294135  0.0000000000000000 B
   0.0147058823529376  0.6911764705882373  0.0000000000000000 B
   0.9411764705882320  0.7352941176470607  0.0000000000000000 B
   0.8676470588235259  0.7794117647058840  0.0000000000000000 B
   0.7941176470588203  0.8235294117647074  0.0000000000000000 B
   0.7205882352941142  0.8676470588235312  0.0000000000000000 B
   0.6470588235294086  0.9117647058823546  0.0000000000000000 B
   0.6764705882352899  0.2941176470588256  0.0000000000000000 B
   0.9999999999999991  0.5000000000000004  0.0000000000000000 B
   0.9264705882352890  0.0441176470588260  0.0000000000000000 B
   0.8529411764705843  0.0882352941176494  0.0000000000000000 B
   0.2058823529411744  0.6764705882352950  0.0000000000000000 B
   0.1323529411764688  0.7205882352941186  0.0000000000000000 B
   0.0588235294117627  0.7647058823529422  0.0000000000000000 B
   0.9852941176470569  0.8088235294117656  0.0000000000000000 B
   0.9117647058823510  0.8529411764705892  0.0000000000000000 B
   0.8382352941176452  0.8970588235294126  0.0000000000000000 B
   0.7647058823529393  0.9411764705882362  0.0000000000000000 B
   0.6911764705882339  0.9852941176470595  0.0000000000000000 B
   0.6176470588235281  0.0294117647058830  0.0000000000000000 B
   0.5441176470588223  0.0735294117647065  0.0000000000000000 B
   0.4705882352941164  0.1176470588235300  0.0000000000000000 B
   0.3970588235294106  0.1617647058823536  0.0000000000000000 B
   0.3235294117647047  0.2058823529411771  0.0000000000000000 B
   0.2499999999999989  0.2500000000000006  0.0000000000000000 B
   0.2794117647058805  0.6323529411764717  0.0000000000000000 B
   0.1764705882352930  0.2941176470588240  0.0000000000000000 B
   0.0294117647058814  0.3823529411764711  0.0000000000000000 B
   0.9558823529411755  0.4264705882352946  0.0000000000000000 B
   0.8823529411764697  0.4705882352941181  0.0000000000000000 B
   0.8088235294117641  0.5147058823529416  0.0000000000000000 B
   0.7352941176470582  0.5588235294117649  0.0000000000000000 B
   0.6617647058823524  0.6029411764705885  0.0000000000000000 B
   0.5882352941176465  0.6470588235294120  0.0000000000000000 B
   0.5147058823529407  0.6911764705882355  0.0000000000000000 B
   0.4411764705882348  0.7352941176470591  0.0000000000000000 B
   0.3676470588235291  0.7794117647058825  0.0000000000000000 B
   0.2941176470588233  0.8235294117647061  0.0000000000000000 B
   0.2205882352941174  0.8676470588235295  0.0000000000000000 B
   0.1470588235294116  0.9117647058823530  0.0000000000000000 B
   0.0735294117647058  0.9558823529411765  0.0000000000000000 B
   0.1029411764705872  0.3382352941176475  0.0000000000000000 B
   0.3529411764705861  0.5882352941176481  0.0000000000000000 B
   0.4264705882352922  0.5441176470588247  0.0000000000000000 B
   0.4999999999999978  0.5000000000000011  0.0000000000000000 B
   0.7794117647058778  0.1323529411764728  0.0000000000000000 B
   0.7058823529411722  0.1764705882352962  0.0000000000000000 B
   0.6323529411764666  0.2205882352941195  0.0000000000000000 B
   0.5588235294117609  0.2647058823529433  0.0000000000000000 B
   0.4852941176470553  0.3088235294117667  0.0000000000000000 B
   0.4117647058823488  0.3529411764705901  0.0000000000000000 B
   0.3382352941176432  0.3970588235294135  0.0000000000000000 B
   0.2647058823529376  0.4411764705882373  0.0000000000000000 B
   0.1911764705882320  0.4852941176470607  0.0000000000000000 B
   0.1176470588235254  0.5294117647058845  0.0000000000000000 B
   0.0441176470588198  0.5735294117647078  0.0000000000000000 B
   0.9705882352941138  0.6176470588235312  0.0000000000000000 B
   0.8970588235294081  0.6617647058823546  0.0000000000000000 B
   0.8235294117647021  0.7058823529411784  0.0000000000000000 B
   0.7499999999999964  0.7500000000000018  0.0000000000000000 B
   0.6764705882352904  0.7941176470588251  0.0000000000000000 B
   0.6029411764705852  0.8382352941176485  0.0000000000000000 B
   0.5735294117647034  0.4558823529411777  0.0000000000000000 B
   0.6470588235294095  0.4117647058823541  0.0000000000000000 B
   0.7205882352941151  0.3676470588235308  0.0000000000000000 B
   0.7941176470588212  0.3235294117647072  0.0000000000000000 B
   0.8676470588235268  0.2794117647058838  0.0000000000000000 B
   0.9411764705882328  0.2352941176470600  0.0000000000000000 B
   0.8529411764705834  0.5882352941176499  0.0000000000000000 B
   0.0147058823529385  0.1911764705882368  0.0000000000000000 B
   0.1617647058823501  0.1029411764705896  0.0000000000000000 B
   0.2352941176470562  0.0588235294117661  0.0000000000000000 B
   0.3088235294117618  0.0147058823529427  0.0000000000000000 B
   0.3823529411764679  0.9705882352941191  0.0000000000000000 B
   0.4558823529411735  0.9264705882352957  0.0000000000000000 B
   0.5294117647058787  0.8823529411764723  0.0000000000000000 B
   0.0882352941176445  0.1470588235294130  0.0000000000000000 B
   0.9264705882352890  0.5441176470588260  0.0000000000000000 B
