B136
 1.000000
    -9.3499999999999943  -10.3057023047439884   -0.0000000000000000
   -17.0000000000000000   17.6669182367039923   -0.0000000000000000
    -0.0000000000000000   -0.0000000000000000  -10.8800000000000008
B
136
Direct
   0.0000000000000000  0.0000000000000000  0.0000000000000000 B
   0.9117647058823515  0.4485294117647092  0.0000000000000000 B
   0.8823529411764692  0.5147058823529438  0.0000000000000000 B
   0.8529411764705870  0.5808823529411784  0.0000000000000000 B
   0.8235294117647043  0.6470588235294148  0.0000000000000000 B
   0.7941176470588220  0.7132352941176503  0.0000000000000000 B
   0.7647058823529398  0.7794117647058849  0.0000000000000000 B
   0.7352941176470575  0.8455882352941195  0.0000000000000000 B
   0.7058823529411753  0.9117647058823550  0.0000000000000000 B
   0.6764705882352926  0.9779411764705914  0.0000000000000000 B
   0.6470588235294104  0.0441176470588260  0.0000000000000000 B
   0.6176470588235281  0.1102941176470607  0.0000000000000000 B
   0.5882352941176459  0.1764705882352962  0.0000000000000000 B
   0.5588235294117632  0.2426470588235325  0.0000000000000000 B
   0.5294117647058809  0.3088235294117672  0.0000000000000000 B
   0.9411764705882337  0.3823529411764737  0.0000000000000000 B
   0.4999999999999991  0.3750000000000018  0.0000000000000000 B
   0.4411764705882342  0.5073529411764737  0.0000000000000000 B
   0.4117647058823519  0.5735294117647083  0.0000000000000000 B
   0.3823529411764697  0.6397058823529438  0.0000000000000000 B
   0.3529411764705874  0.7058823529411784  0.0000000000000000 B
   0.3235294117647052  0.7720588235294130  0.0000000000000000 B
   0.2941176470588225  0.8382352941176494  0.0000000000000000 B
   0.2647058823529402  0.9044117647058849  0.0000000000000000 B
   0.2352941176470580  0.9705882352941195  0.0000000000000000 B
   0.2058823529411757  0.0367647058823541  0.0000000000000000 B
   0.1764705882352930  0.1029411764705905  0.0000000000000000 B
   0.1470588235294108  0.1691176470588260  0.0000000000000000 B
   0.1176470588235285  0.2352941176470607  0.0000000000000000 B
   0.0882352941176463  0.3014705882352953  0.0000000000000000 B
   0.0588235294117636  0.3676470588235317  0.0000000000000000 B
   0.4705882352941169  0.4411764705882373  0.0000000000000000 B
   0.0294117647058814  0.4338235294117672  0.0000000000000000 B
   0.9705882352941164  0.3161764705882373  0.0000000000000000 B
   0.0294117647058809  0.1838235294117680  0.0000000000000000 B
   0.9117647058823510  0.1985294117647101  0.0000000000000000 B
   0.8823529411764688  0.2647058823529456  0.0000000000000000 B
   0.8529411764705865  0.3308823529411793  0.0000000000000000 B
   0.8235294117647038  0.3970588235294166  0.0000000000000000 B
   0.7941176470588216  0.4632352941176503  0.0000000000000000 B
   0.7647058823529393  0.5294117647058858  0.0000000000000000 B
   0.7352941176470571  0.5955882352941213  0.0000000000000000 B
   0.7058823529411749  0.6617647058823550  0.0000000000000000 B
   0.6764705882352922  0.7279411764705923  0.0000000000000000 B
   0.6470588235294099  0.7941176470588278  0.0000000000000000 B
   0.6176470588235277  0.8602941176470615  0.0000000000000000 B
   0.5882352941176454  0.9264705882352970  0.0000000000000000 B
   0.5588235294117627  0.9926470588235325  0.0000000000000000 B
   0.5294117647058805  0.0588235294117680  0.0000000000000000 B
   0.9999999999999987  0.2500000000000027  0.0000000000000000 B
   0.4999999999999982  0.1250000000000036  0.0000000000000000 B
   0.4411764705882337  0.2573529411764746  0.0000000000000000 B
   0.4117647058823515  0.3235294117647092  0.0000000000000000 B
   0.3823529411764692  0.3897058823529447  0.0000000000000000 B
   0.3529411764705870  0.4558823529411793  0.0000000000000000 B
   0.3235294117647043  0.5220588235294157  0.0000000000000000 B
   0.2941176470588220  0.5882352941176503  0.0000000000000000 B
   0.2647058823529398  0.6544117647058858  0.0000000000000000 B
   0.2352941176470575  0.7205882352941204  0.0000000000000000 B
   0.2058823529411753  0.7867647058823550  0.0000000000000000 B
   0.1764705882352926  0.8529411764705914  0.0000000000000000 B
   0.1470588235294104  0.9191176470588269  0.0000000000000000 B
   0.1176470588235281  0.9852941176470615  0.0000000000000000 B
   0.0882352941176459  0.0514705882352962  0.0000000000000000 B
   0.0588235294117632  0.1176470588235325  0.0000000000000000 B
   0.4705882352941164  0.1911764705882382  0.0000000000000000 B
   0.9999999999999991  0.5000000000000018  0.0000000000000000 B
   0.9705882352941166  0.5661764705882373  0.0000000000000000 B
   0.9411764705882344  0.6323529411764728  0.0000000000000000 B
   0.8823529411764701  0.0147058823529420  0.0000000000000000 B
   0.8529411764705879  0.0808823529411773  0.0000000000000000 B
   0.8235294117647055  0.1470588235294126  0.0000000000000000 B
   0.7941176470588232  0.2132352941176479  0.0000000000000000 B
   0.7647058823529408  0.2794117647058831  0.0000000000000000 B
   0.7352941176470584  0.3455882352941184  0.0000000000000000 B
   0.7058823529411761  0.4117647058823537  0.0000000000000000 B
   0.6764705882352938  0.4779411764705888  0.0000000000000000 B
   0.6470588235294115  0.5441176470588240  0.0000000000000000 B
   0.6176470588235292  0.6102941176470593  0.0000000000000000 B
   0.5882352941176469  0.6764705882352946  0.0000000000000000 B
   0.5588235294117645  0.7426470588235299  0.0000000000000000 B
   0.5294117647058821  0.8088235294117652  0.0000000000000000 B
   0.4999999999999998  0.8750000000000004  0.0000000000000000 B
   0.9117647058823525  0.9485294117647070  0.0000000000000000 B
   0.4705882352941174  0.9411764705882357  0.0000000000000000 B
   0.4117647058823528  0.0735294117647063  0.0000000000000000 B
   0.3823529411764704  0.1397058823529416  0.0000000000000000 B
   0.3529411764705880  0.2058823529411768  0.0000000000000000 B
   0.3235294117647057  0.2720588235294120  0.0000000000000000 B
   0.2941176470588234  0.3382352941176473  0.0000000000000000 B
   0.2647058823529411  0.4044117647058826  0.0000000000000000 B
   0.2352941176470587  0.4705882352941179  0.0000000000000000 B
   0.2058823529411764  0.5367647058823531  0.0000000000000000 B
   0.1764705882352940  0.6029411764705884  0.0000000000000000 B
   0.1470588235294117  0.6691176470588236  0.0000000000000000 B
   0.1176470588235294  0.7352941176470589  0.0000000000000000 B
   0.0882352941176470  0.8014705882352942  0.0000000000000000 B
   0.0588235294117647  0.8676470588235294  0.0000000000000000 B
   0.0294117647058823  0.9338235294117647  0.0000000000000000 B
   0.4411764705882351  0.0073529411764710  0.0000000000000000 B
   0.9411764705882348  0.8823529411764715  0.0000000000000000 B
   0.9705882352941172  0.8161764705882364  0.0000000000000000 B
   0.9999999999999996  0.7500000000000009  0.0000000000000000 B
   0.9117647058823519  0.6985294117647083  0.0000000000000000 B
   0.8823529411764697  0.7647058823529429  0.0000000000000000 B
   0.8529411764705874  0.8308823529411775  0.0000000000000000 B
   0.8235294117647050  0.8970588235294139  0.0000000000000000 B
   0.7941176470588227  0.9632352941176485  0.0000000000000000 B
   0.7647058823529402  0.0294117647058840  0.0000000000000000 B
   0.7352941176470582  0.0955882352941191  0.0000000000000000 B
   0.7058823529411757  0.1617647058823546  0.0000000000000000 B
   0.6764705882352935  0.2279411764705896  0.0000000000000000 B
   0.6470588235294110  0.2941176470588251  0.0000000000000000 B
   0.6176470588235288  0.3602941176470602  0.0000000000000000 B
   0.5882352941176463  0.4264705882352957  0.0000000000000000 B
   0.5588235294117641  0.4926470588235308  0.0000000000000000 B
   0.5294117647058816  0.5588235294117663  0.0000000000000000 B
   0.4999999999999993  0.6250000000000013  0.0000000000000000 B
   0.4705882352941169  0.6911764705882368  0.0000000000000000 B
   0.4411764705882346  0.7573529411764719  0.0000000000000000 B
   0.0294117647058818  0.6838235294117658  0.0000000000000000 B
   0.0588235294117643  0.6176470588235303  0.0000000000000000 B
   0.0882352941176465  0.5514705882352953  0.0000000000000000 B
   0.1176470588235290  0.4852941176470598  0.0000000000000000 B
   0.1470588235294112  0.4191176470588247  0.0000000000000000 B
   0.1764705882352937  0.3529411764705892  0.0000000000000000 B
   0.9411764705882333  0.1323529411764746  0.0000000000000000 B
   0.2058823529411760  0.2867647058823541  0.0000000000000000 B
   0.2647058823529405  0.1544117647058836  0.0000000000000000 B
   0.2941176470588229  0.0882352941176481  0.0000000000000000 B
   0.3235294117647052  0.0220588235294130  0.0000000000000000 B
   0.3529411764705876  0.9558823529411775  0.0000000000000000 B
   0.3823529411764699  0.8897058823529425  0.0000000000000000 B
   0.4117647058823521  0.8235294117647074  0.0000000000000000 B
   0.2352941176470584  0.2205882352941186  0.0000000000000000 B
   0.9705882352941160  0.0661764705882391  0.0000000000000000 B
