B18
 1.000000
    -1.7000000000000004    5.8879999999999999    0.0000000000000000
    -6.8000000000000025   -2.9439999999999991    0.0000000000000000
     0.0000000000000000    0.0000000000000000   12.0000000000000053
B
18
Direct
   0.0000000000000000  0.0000000000000000  0.0000000000000000 B
   0.1666666666666661  0.8333333333333333  0.0000000000000000 B
   0.8888888888888884  0.7777777777777777  0.0000000000000000 B
   0.6111111111111112  0.7222222222222222  0.0000000000000000 B
   0.3333333333333330  0.6666666666666666  0.0000000000000000 B
   0.0555555555555554  0.6111111111111110  0.0000000000000000 B
   0.7777777777777777  0.5555555555555556  0.0000000000000000 B
   0.5000000000000000  0.5000000000000000  0.0000000000000000 B
   0.2222222222222223  0.4444444444444444  0.0000000000000000 B
   0.9444444444444442  0.3888888888888888  0.0000000000000000 B
   0.6666666666666665  0.3333333333333333  0.0000000000000000 B
   0.3888888888888888  0.2777777777777778  0.0000000000000000 B
   0.1111111111111112  0.2222222222222222  0.0000000000000000 B
   0.8333333333333333  0.1666666666666667  0.0000000000000000 B
   0.5555555555555556  0.1111111111111111  0.0000000000000000 B
   0.2777777777777778  0.0555555555555556  0.0000000000000000 B
   0.4444444444444446  0.8888888888888888  0.0000000000000000 B
   0.7222222222222223  0.9444444444444444  0.0000000000000000 B
